45
O=P(O)(O)CCn1c2ccc3ccccc3c2c2c3ccccc3c(Br)cc21
C        -3.42116000     -2.79627800     -0.07727200
C        -2.32203700     -3.70865500     -0.12019000
C        -1.03020700     -3.26934100     -0.27734200
C        -0.80247000     -1.87479200     -0.30417400
C        -1.82935200     -0.91229300     -0.12864200
C        -3.19297000     -1.37552100     -0.13744500
N         0.40656500     -1.22884300     -0.48238000
C         0.20092000      0.13032700     -0.35227000
C        -1.16356000      0.38148000     -0.07563700
C         1.17421900      1.14420500     -0.47390500
C         0.77028400      2.44523200     -0.28965700
C        -0.56603700      2.78598200      0.11094600
C        -1.53506700      1.72622200      0.27558000
C         1.70219600     -1.84955300     -0.63245600
C         2.44102900     -1.99098500      0.70735000
P         4.18317400     -2.42458400      0.52943400
O         5.01830800     -2.58727800      1.74617400
O         4.06184800     -3.73738500     -0.42493100
O         4.72586800     -1.25204000     -0.47424300
H        -0.20348200     -3.97597700     -0.36568000
H         2.21209800      0.91065400     -0.71054300
H         2.30000800     -1.24377600     -1.32798300
H         1.57947800     -2.83376600     -1.10243900
H         1.96343400     -2.74731800      1.34914600
H         2.42208900     -1.03614100      1.25603100
H         4.87406100     -4.26649200     -0.40962000
H         5.54161900     -0.86512500     -0.12175500
C        -2.77743200      2.06468400      0.87376600
H        -3.47077100      1.26779700      1.12814600
C        -0.94760500      4.11905200      0.41530300
C        -2.19370000      4.41278700      0.92946000
H        -2.45914800      5.44639200      1.16198400
C        -3.10399000      3.36838000      1.19170900
C        -4.32863600     -0.53870700     -0.29971800
H        -4.18491000      0.52360900     -0.47935100
C        -4.75280100     -3.28691700     -0.04307000
C        -5.83467200     -2.43520600     -0.13334500
H        -6.85287300     -2.83018800     -0.11402900
C        -5.61303200     -1.05056600     -0.29479400
H        -4.90578900     -4.36690100      0.03061000
H        -0.22112100      4.91597300      0.25694900
H        -6.46179200     -0.37620500     -0.43221600
H        -4.06703600      3.58586100      1.65970800
Br        2.09093100      3.80908600     -0.52096200
H        -2.53372800     -4.77933300     -0.07131800
