51
O=P(O)(O)CCCCn1c2ccc3ccccc3c2c2c3ccccc3c(Br)cc21
C        -2.46033900     -3.93845300     -0.14399700
C        -1.07899200     -4.22481700     -0.37278800
C        -0.16974400     -3.22512600     -0.61801100
C        -0.61868000     -1.88620600     -0.54926200
C        -1.94306500     -1.52664500     -0.19115100
C        -2.92558200     -2.57616100     -0.10417100
N         0.12103700     -0.74402600     -0.79152300
C        -0.67480200      0.35377900     -0.53022500
C        -1.95254700     -0.07503000     -0.09709500
C        -0.31993800      1.71153300     -0.67324000
C        -1.25774200      2.66134800     -0.34520000
C        -2.53137100      2.31980800      0.22317500
C        -2.85980800      0.92405300      0.40130400
C         3.91780000     -0.59645500     -0.26831100
C         4.83186500     -0.53052800      0.95880600
P         6.59664000     -0.47384600      0.58744700
O         7.57022500     -0.39869100      1.70898700
O         6.77320100     -1.79226900     -0.35732300
O         6.68854000      0.79080300     -0.44082600
C         1.52995100     -0.70226100     -1.12370900
C         2.43780100     -0.63881200      0.10701300
H         0.87159100     -3.45784600     -0.84529900
H         0.66090600      2.00653700     -1.04393500
H         4.11750900      0.27652200     -0.91168700
H         4.18031800     -1.48619800     -0.86438300
H         4.68389100     -1.40448100      1.61447500
H         4.61918400      0.36448900      1.56657500
H         7.66321900     -2.16174100     -0.25356700
H         7.50870100      1.28326900     -0.28556800
H         1.76885100     -1.58885200     -1.73064600
H         1.70813600      0.16792300     -1.77422500
H         2.17133800      0.25100800      0.70243400
H         2.23260500     -1.51331700      0.74785300
C        -4.02428700      0.61841100      1.15398400
H        -4.22317100     -0.41768200      1.41391900
C        -3.44780600      3.30494900      0.67545300
C        -4.60590700      2.96030000      1.34156300
H        -5.29063200      3.73846600      1.68580500
C        -4.87763500      1.60330900      1.61154800
C        -4.32990100     -2.36698700     -0.08102000
H        -4.71863800     -1.35688500     -0.18118500
C        -3.39669300     -4.99824600     -0.02121100
C        -4.75162400     -4.75284200      0.06894800
H        -5.45937300     -5.58046800      0.15429000
C        -5.21889500     -3.42239500      0.00630200
H        -3.02131000     -6.02504700     -0.02591800
H        -3.20672700      4.35453200      0.50736900
H        -6.29313600     -3.22229300      0.01184900
H        -5.75870600      1.32687800      2.19560200
Br       -0.77535300      4.49295300     -0.61197000
H        -0.76215500     -5.27019700     -0.39477900
