16
OB(O)c1ccc(F)cc1
C         2.18029100      0.00000000     -0.00004400
C         1.50302700     -1.21789800     -0.00008200
C         0.10795700     -1.20604500      0.00039800
C        -0.61769900      0.00000200     -0.00000600
C         0.10795600      1.20604500     -0.00038200
C         1.50302900      1.21789700      0.00006600
B        -2.18025200      0.00000100      0.00000500
O        -2.82501500      1.20822100      0.00036400
O        -2.82501100     -1.20822200     -0.00036700
H         2.07471400     -2.14775800     -0.00015600
H        -0.43567200     -2.15357100      0.00044800
H        -0.43567000      2.15357300     -0.00040300
H         2.07471100      2.14776000      0.00016500
H        -3.78824600      1.17079000     -0.00056400
H        -3.78824200     -1.17079300      0.00059200
F         3.52138900      0.00000000      0.00002500
