56
O=P(O)(O)CCCn1c2ccccc2c2c3[nH]c4ccccc4c3c3[nH]c4ccccc4c3c21
N         1.70860900     -2.78182300     -0.23796200
C         1.81237100     -1.41134100     -0.18220500
C         2.98427100     -0.64482500     -0.02203300
C         2.84048400      0.75838600      0.08715800
N         4.09130200      1.31296200      0.27671900
C         5.05242800      0.31484500      0.28902200
C         6.43679700      0.40918700      0.44610600
C         7.17980900     -0.77268000      0.41772700
C         6.55450400     -2.01886000      0.23479900
C         5.17102000     -2.10951800      0.07719500
C         4.39600900     -0.94020100      0.10374400
C         0.50437800     -0.84189000     -0.25735400
C         0.42744000      0.58030500     -0.23957700
C         1.58446400      1.38470000     -0.02434400
C         1.16657800      2.76656300     -0.03219900
C         1.82065600      3.99701500      0.12747700
C         1.08786300      5.18002600      0.02143800
C        -0.29148800      5.14954000     -0.24640200
C        -0.96870600      3.93799700     -0.40548300
C        -0.23286400      2.75518800     -0.28824100
N        -0.66034700      1.43735500     -0.41895400
C        -1.94759800      1.10125500     -0.98852300
C        -3.09638900      1.07866800      0.02170000
C        -4.41910600      0.69566000     -0.66244400
P        -5.50368200     -0.26392700      0.40900000
O        -6.90076100     -0.22519000     -0.42151900
O        -5.73121100      0.73239800      1.67755800
O        -5.06676000     -1.63166700      0.80949200
C        -0.42390500     -1.97332600     -0.27952700
C        -1.81807700     -2.14604400     -0.21190000
C        -2.37206200     -3.42493900     -0.18992500
C        -1.55527500     -4.56653800     -0.24105900
C        -0.16677700     -4.44200000     -0.28034300
C         0.37822800     -3.15564800     -0.28038200
H         6.92403900      1.37685900      0.58671100
H         8.26454500     -0.72652900      0.53836600
H         7.16098300     -2.92699000      0.21368200
H         4.70875800     -3.08840100     -0.07154400
H         2.89267500      4.04388900      0.33331600
H         1.59125900      6.14111200      0.14742100
H        -0.84609100      6.08715800     -0.32757700
H        -2.04099900      3.92510100     -0.60721600
H        -1.85855000      0.12376000     -1.47938800
H        -2.17077600      1.82925200     -1.78711300
H        -2.84608800      0.36535600      0.82196500
H        -3.19724200      2.05662200      0.51400400
H        -4.97107100      1.57565100     -1.02657500
H        -4.24365900      0.04660000     -1.53701800
H        -7.41599900     -1.03026100     -0.25980600
H        -5.69932200      0.23041500      2.50612000
H        -2.49766000     -1.30774600     -0.12789000
H        -3.45652400     -3.51250300     -0.10416700
H        -2.00717700     -5.56113000     -0.22757900
H         0.48075300     -5.32213400     -0.29007500
H         2.48546900     -3.42003900     -0.14885000
H         4.28048800      2.29993100      0.36877800
