43
O=P(O)(O)CCn1c2ccccc2c2cc3[nH]c4ccccc4c3cc21
C        -2.57131200      4.63287300      0.23394500
C        -3.59708700      3.71909400     -0.06958400
C        -3.32162200      2.37505600     -0.32955800
C        -1.98589700      1.96123900     -0.28225700
C        -0.93584800      2.87196600      0.03365100
C        -1.24121400      4.21499600      0.28731200
N        -1.44121900      0.70570100     -0.51095100
C        -0.06203700      0.76303100     -0.30859600
C         0.29864600      2.10973900      0.01864300
C         0.87378000     -0.26771800     -0.38671000
C         2.21169900      0.07251700     -0.14561900
C         2.57497300      1.42265500      0.16930800
C         1.63561800      2.44933000      0.25715300
C        -2.17519500     -0.51463200     -0.72501900
C        -2.46248700     -1.26209200      0.58852800
P        -3.12768400     -2.92028300      0.35509300
O        -4.38137800     -2.60976000     -0.63859200
O        -1.99579800     -3.59907300     -0.61134500
O        -3.46128100     -3.75326800      1.53948600
H        -2.82167200      5.67725300      0.43216700
H        -4.63282200      4.06572600     -0.10162700
H        -4.12717100      1.67565900     -0.56083700
H        -0.44650800      4.92560700      0.52729100
H         0.58565200     -1.29468500     -0.61859000
H         1.92525700      3.47274900      0.50497800
H        -3.11814300     -0.28566000     -1.23972300
H        -1.59542800     -1.15935100     -1.40188200
H        -1.53361200     -1.38291100      1.16802000
H        -3.17157300     -0.69968400      1.21554400
H        -5.05333300     -3.30588800     -0.57929800
H        -1.81795000     -4.50654600     -0.32120200
C         3.44050500     -0.69802500     -0.13714600
C         4.49371900      0.20903800      0.17908400
C         5.82335200     -0.21629600      0.26796700
C         6.09239000     -1.56591600      0.03649300
H         7.12331900     -1.92239900      0.10032100
C         3.74008200     -2.04779800     -0.36535600
C         5.06450200     -2.47526200     -0.27725500
H         5.31007400     -3.52483800     -0.45297500
H         6.62609100      0.48373400      0.51072200
H         2.94403600     -2.75539600     -0.60986600
N         3.95135700      1.46805200      0.35724700
H         4.47631700      2.29865100      0.59017600
