45
O=P(O)(O)CCn1c2cc(Br)c3ccccc3c2c2c3ccccc3c(Br)cc21
C         3.50963800     -1.26913900     -0.07572900
C         3.57285800      0.16525800     -0.11308400
C         2.45352300      0.94682400     -0.27555900
C         1.19893600      0.30364900     -0.30540900
C         1.03344000     -1.09136200     -0.12864700
C         2.21651800     -1.90994000     -0.14319700
N        -0.03553600      0.89665400     -0.48499200
C        -1.00854600     -0.07517600     -0.35305300
C        -0.40247400     -1.32302400     -0.07453700
C        -2.40175600      0.10803100     -0.47476700
C        -3.21020700     -0.98822400     -0.28862400
C        -2.69264400     -2.26581300      0.11518400
C        -1.26506700     -2.41869300      0.28039700
C        -0.30039000      2.30937200     -0.63462300
C        -0.61937600      2.98953900      0.70533400
P        -1.27686700      4.66041800      0.52637900
O        -1.63355900      5.43559100      1.74122600
O        -0.13288600      5.32544300     -0.42116200
O        -2.54186900      4.41452200     -0.48080400
H         2.53939100      2.02971300     -0.35867000
H        -2.82840200      1.08205800     -0.71323500
H        -1.14353100      2.43340300     -1.32864000
H         0.56538300      2.79105300     -1.10716700
H         0.27210100      3.04102000      1.34934300
H        -1.38668300      2.41814500      1.25102800
H        -0.15119700      6.29376400     -0.37746800
H        -3.32431700      4.88389300     -0.15376900
C        -0.80177000     -3.61794100      0.88287300
H         0.25093400     -3.70459800      1.13785800
C        -3.54088600     -3.36167300      0.42295300
C        -3.03959900     -4.53790400      0.94119700
H        -3.71522000     -5.36310600      1.17646900
C        -1.65913200     -4.65191600      1.20430200
C         2.19298900     -3.31852400     -0.31896000
H         1.24092000     -3.80816100     -0.50592800
C         4.67571900     -2.07772400     -0.04005500
C         4.60308700     -3.45179500     -0.14191600
H         5.51640300     -4.05027000     -0.12068100
C         3.34969600     -4.07334400     -0.31707600
H         5.64543500     -1.58738100      0.04446300
H        -4.61323800     -3.24881000      0.26424500
H         3.29044800     -5.15413700     -0.46567100
H        -1.26425400     -5.55494200      1.67579300
Br       -5.09054800     -0.73351400     -0.52078500
Br        5.25588400      1.06403300      0.00121800
