39
O=P(O)(O)CCCCn1c2ccc(Br)cc2c2cc(Br)ccc21
C         2.52448400      3.03278600     -0.02463200
C         1.23370200      3.43205100     -0.41726800
C         0.26040500      2.48173600     -0.72435100
C         0.60510700      1.12844400     -0.63438500
C         1.90950900      0.72478200     -0.22918600
C         2.87818700      1.68877300      0.07524300
N        -0.16100600     -0.00008600     -0.89299400
C         0.60523200     -1.12852900     -0.63438000
C         1.90958900     -0.72472000     -0.22917900
C         0.26068400     -2.48186100     -0.72434400
C         1.23408800     -3.43206600     -0.41725800
C         2.52482300     -3.03265400     -0.02461900
C         2.87837400     -1.68860100      0.07525600
C        -1.56897600     -0.00015900     -1.22584900
C        -2.48135600     -0.00016800      0.00403000
P        -6.64423800     -0.00010000      0.47798800
O        -6.77475000      1.29306000     -0.50904200
O        -6.77515400     -1.29315500     -0.50919500
O        -7.62238200     -0.00023400      1.59798000
H         0.99604000      4.49462200     -0.47862400
H        -0.73960600      2.79994100     -1.02274400
H         3.88345700      1.39993100      0.38444600
H        -0.73929100     -2.80017800     -1.02274000
H         0.99654600     -4.49466400     -0.47861400
H         3.88361100     -1.39964600      0.38445700
H        -1.77647200      0.88006900     -1.85459900
H        -1.77639300     -0.88042700     -1.85456800
H        -2.24723500     -0.88321900      0.62280700
H        -2.24722700      0.88287900      0.62281200
H        -7.63315500      1.72431000     -0.37987500
H        -7.63257300     -1.72570700     -0.37786600
C        -3.96148800     -0.00015000     -0.37340200
H        -4.19154400     -0.88232300     -0.99368800
H        -4.19149400      0.88199200     -0.99374800
C        -4.87921300     -0.00007900      0.85297900
H        -4.70008700     -0.88548600      1.48503300
H        -4.70005300      0.88536900      1.48496400
Br        3.81954600      4.37391900      0.38319200
Br        3.82003900     -4.37364000      0.38320300
