40
O=P(O)(O)CCCCN1c2ccc(Br)cc2Oc2cc(Br)ccc21
C         2.24503100      3.57589000      0.00838700
C         0.87921400      3.63709600     -0.24400300
C         0.16838700      2.45492200     -0.48786600
C         0.80515700      1.20611200     -0.49985100
C         2.19281000      1.18113100     -0.23540100
C         2.90813800      2.34283000      0.02008800
N         0.14447300     -0.00060200     -0.76824100
C         0.80861700     -1.20542400     -0.49989200
C         2.19618900     -1.17646500     -0.23538700
C         0.17545400     -2.45606800     -0.48799000
C         0.88965100     -3.63620400     -0.24409800
C         2.25526100     -3.57107000      0.00841700
C         2.91482200     -2.33610900      0.02016500
C        -1.26125100     -0.00253300     -1.12607600
C        -2.21725600     -0.00388000      0.07228900
H         0.35882700      4.59512900     -0.24743900
H        -0.90275300      2.52500800     -0.66924700
H         3.97746500      2.26704700      0.21557100
H        -0.89547000     -2.52923700     -0.66942900
H         0.37202300     -4.59573300     -0.24759600
H         3.98391800     -2.25726100      0.21571500
H        -1.45610300      0.87303300     -1.76337300
H        -1.45372300     -0.87850300     -1.76354300
H        -2.00921100     -0.88501900      0.70210000
H        -2.01017500      0.87668800      0.70321500
Br        3.24495100     -5.16081300      0.34798700
Br        3.23017900      5.16848600      0.34777200
C        -3.68099200     -0.00432700     -0.36406800
H        -3.88592600      0.87810000     -0.99285000
H        -3.88503600     -0.88568700     -0.99464400
C        -4.64845200     -0.00607700      0.82342500
H        -4.49578200      0.87869900      1.46326500
H        -4.49497000     -0.89217600      1.46124500
P        -6.39675000     -0.00651000      0.37645100
O        -7.42052800     -0.01119700      1.45487000
O        -6.48585300      1.28971700     -0.61100000
H        -7.35258800      1.71501100     -0.52519500
O        -6.48641700     -1.29659300     -0.61927700
H        -7.34635400     -1.73283900     -0.52118500
O         2.89549500      0.00333400     -0.24410300
