40
O=P(O)(O)CCCCN1c2ccc(Br)cc2Sc2cc(Br)ccc21
C         2.04915300      3.70792200      0.10758100
C         0.66302700      3.62887400      0.01260500
C         0.05813900      2.40165200     -0.26926000
C         0.81101600      1.23343400     -0.49202500
C         2.21833400      1.35521200     -0.42659100
C         2.82853100      2.56844400     -0.10261500
N         0.19575100     -0.00045000     -0.78377500
C         0.81706600     -1.23135300     -0.49227700
C         2.22496200     -1.34614400     -0.42671500
C         0.06995700     -2.40332400     -0.26978800
C         0.68089300     -3.62754200      0.01212000
C         2.06737800     -3.69967300      0.10741100
C         2.84111400     -2.55633300     -0.10265300
C        -1.22547600     -0.00381400     -1.11288900
C        -2.19460400     -0.00635300      0.07921800
H         0.04628600      4.51423400      0.16985800
H        -1.02767800      2.37492200     -0.31367000
H         3.91627800      2.62269600     -0.04119900
H        -1.01596900     -2.38192100     -0.31439300
H         0.06852400     -4.51596600      0.16921400
H         3.92909700     -2.60519200     -0.04102600
H        -1.42471700      0.87250700     -1.74761900
H        -1.42055000     -0.88079500     -1.74801800
H        -2.00361000     -0.88294800      0.71778600
H        -2.00576000      0.86927500      0.71975900
Br        2.91583100     -5.35386500      0.51593700
Br        2.88931600      5.36646100      0.51564400
C        -3.65017700     -0.00757000     -0.38499000
H        -3.84397100      0.87498200     -1.01711400
H        -3.84161000     -0.88850600     -1.02010600
C        -4.63930000     -0.01094100      0.78436400
H        -4.49940100      0.87328900      1.42791900
H        -4.49720300     -0.89731400      1.42448500
P        -6.37933200     -0.01245200      0.30595400
O        -7.42164200     -0.01699400      1.36644600
O        -6.45112500      1.28311500     -0.68349300
H        -7.31987100      1.70748100     -0.61536800
O        -6.45016900     -1.30329400     -0.69016100
H        -7.31208400     -1.73913600     -0.60904600
S         3.26595300      0.00711700     -0.90331200
