27
O=P(O)(O)CCn1c2ccsc2c2sccc21
C        -2.05195900     -3.17315900     -0.03324900
C        -0.88316900     -2.52922400     -0.36275900
C        -1.06030100     -1.11636700     -0.32400200
C        -2.35759700     -0.71028200      0.04038900
N        -0.27413900     -0.00046500     -0.56577600
C        -1.05949000      1.11601800     -0.32408100
C        -2.35703800      0.71091000      0.04049000
C        -0.88132200      2.52874100     -0.36301600
C        -2.04962700      3.17356000     -0.03351400
C         1.15260300     -0.00090300     -0.78668900
C         1.94828500      0.00003600      0.52789900
P         3.73837400     -0.00013400      0.30720300
O         3.93885400     -1.29356400     -0.66759100
O         3.93766900      1.29286800     -0.66820300
O         4.62495400     -0.00008400      1.49954300
H        -2.22163000     -4.24717300      0.02090300
H         0.04153000     -3.04790000     -0.61577200
H         0.04374100      3.04670200     -0.61616400
H        -2.21851200      4.24770300      0.02053100
H         1.41819800     -0.88543500     -1.38339400
H         1.41854300      0.88253600     -1.38486900
H         1.69959200      0.88823900      1.12981800
H         1.69963100     -0.88732800      1.13107100
H         4.78536900     -1.72831000     -0.48330300
H         4.78736300      1.72405100     -0.49025600
S        -3.37494800      2.08850400      0.32589100
S        -3.37658800     -2.08710100      0.32567300
