16
OB(O)c1cc(F)cc(F)c1
C         2.13101600      0.00000000      0.00000100
C         1.40798900     -1.19126800      0.00011500
C         0.01710900     -1.21241900      0.00008200
C        -0.69391200      0.00000000     -0.00000400
C         0.01711000      1.21241900     -0.00009100
C         1.40798900      1.19126800     -0.00011800
B        -2.26270800      0.00000000     -0.00001100
O        -2.90010600      1.20885900      0.00008200
O        -2.90010500     -1.20885900     -0.00006800
H        -0.50560300     -2.16960300      0.00013900
H        -0.50560200      2.16960300     -0.00015300
H        -3.86371000      1.18040000     -0.00021700
H        -3.86371000     -1.18040000      0.00026100
H         3.22117800      0.00000000      0.00000300
F         2.08382600      2.34900700     -0.00015800
F         2.08382600     -2.34900700      0.00015800
