61
COc1ccc(N(c2ccc(OC)cc2)c2cc(F)c(-c3ccc(/C=C(\C#N)C(=O)O)c4nsnc34)cc2F)cc1
S        -3.91222400     -2.32854200      2.61726900
N        -2.63973700     -1.63500200      1.85336600
C        -3.12730500     -0.82560600      0.90869500
C        -2.36250600      0.00083900      0.00305500
C        -3.11787000      0.76770200     -0.88200700
C        -4.53099500      0.76523400     -0.92110300
C        -5.31315000     -0.00929500     -0.06835900
C        -4.58372200     -0.82381100      0.87185500
N        -5.13548700     -1.62693300      1.78085600
C        -6.75426200     -0.07382400     -0.03767500
C        -7.69628500      0.56986700     -0.78931200
C        -9.13002600      0.27032400     -0.49341100
C        -0.89361400      0.01982800      0.01661800
C        -0.13605400     -1.09731900      0.43593400
C         1.24448100     -1.08178400      0.44855000
C         1.99227700      0.04365300      0.03351200
C         1.24806100      1.16637500     -0.37620300
C        -0.13622300      1.14443200     -0.37550700
N         3.38455400      0.05973200      0.04777900
C         4.06563400      1.29137700      0.26935300
C         5.03654800      1.74592400     -0.62769400
C         5.71635800      2.94605800     -0.40232800
C         5.41322100      3.72092000      0.72726000
C         4.43135600      3.26867400      1.62704400
C         3.77482800      2.06574900      1.40580100
C         4.14273900     -1.07838500     -0.34253400
C         3.72456300     -1.89678500     -1.40449500
C         4.47571100     -3.00203600     -1.78286400
C         5.67707400     -3.30840100     -1.12237500
C         6.10715300     -2.48561100     -0.07012000
C         5.33703300     -1.38711000      0.31651700
H        -2.60257500      1.40132000     -1.59999600
H        -5.01026900      1.40126000     -1.66363200
H        -0.63577700     -1.99515200      0.79118500
H         1.75467800      2.07482900     -0.69896100
H         5.26907200      1.14907000     -1.51123600
H         6.47032300      3.26880500     -1.11959500
H         4.21380900      3.87861100      2.50548300
H         3.02364300      1.71327000      2.11510500
H         2.80059600     -1.66141700     -1.93618500
H         4.15673500     -3.64631900     -2.60397200
H         7.03262800     -2.69517800      0.46522200
H         5.66977800     -0.75835600      1.14395500
O         6.00784600      4.89955600      1.03240700
O         6.34726400     -4.40102100     -1.56722600
C         6.99793000      5.40861500      0.16860000
H         7.33711400      6.35742700      0.60448000
H         7.86051500      4.72309900      0.08521100
H         6.59917300      5.60105000     -0.84370200
C         7.55112400     -4.76555700     -0.93422000
H         7.91410500     -5.66763100     -1.44425800
H         8.31688100     -3.97314800     -1.01982700
H         7.39913800     -4.99549500      0.13592400
H        -7.17007400     -0.75140900      0.71344000
O        -9.96492300      0.95793200     -1.29168000
H       -10.86924300      0.70898400     -1.03700700
O        -9.50961300     -0.49639200      0.35892100
C        -7.40153700      1.50154500     -1.82979500
N        -7.13885700      2.25658900     -2.67360100
F        -0.75760600      2.27190900     -0.76481500
F         1.89229300     -2.17277700      0.88560700
