35
O=P(O)(O)CCc1c2ccccc2cc2ccccc12
C        -2.64874900     -3.65756200      0.14768200
C        -3.30907200     -2.46164700      0.25997200
C        -2.62120900     -1.21766300      0.09500200
C        -3.28870600      0.00445400      0.23131700
C        -1.25317600     -3.67349300     -0.13875400
C        -0.55926500     -2.50196900     -0.31352200
C        -1.20694500     -1.22587800     -0.21025100
C        -0.51846900     -0.00077700     -0.38261700
C         0.95863300     -0.00331400     -0.69298100
C         1.81358900     -0.00370400      0.58805600
P         3.58750600     -0.00325600      0.27849400
O         3.74730000      1.29281200     -0.70368900
O         4.53992900     -0.00400500      1.42103800
O         3.74737600     -1.29742100     -0.70602500
H        -0.73158300     -4.63006900     -0.22042500
H         0.50868200     -2.54787900     -0.52763100
H         1.22536700     -0.87686200     -1.30064200
H         1.22781400      0.86866000     -1.30187300
H         1.59716000      0.88124100      1.20676900
H         1.59713800     -0.88893400      1.20635700
H         4.60111400      1.72362200     -0.54655500
H         4.60242700     -1.72688600     -0.55196100
H        -3.18539700     -4.59994700      0.27938700
H        -4.37862100     -2.43511100      0.48385100
H        -4.35746300      0.00636200      0.46156900
C        -1.20245600      1.22689300     -0.21039200
C        -0.54993500      2.50054300     -0.31378200
C        -2.61672100      1.22401300      0.09482000
C        -1.23945000      3.67466800     -0.13929600
H         0.51820600      2.54236300     -0.52771100
C        -3.29997100      2.47065300      0.25946400
C        -2.63512400      3.66400300      0.14698400
H        -0.71423800      4.62925200     -0.22108700
H        -4.36961900      2.44820400      0.48325900
H        -3.16825600      4.60840800      0.27846600
