33
O=P(O)(O)CCn1c2ccccc2c2ccccc21
C        -3.06522300     -3.10793000      0.25548800
C        -1.74116200     -3.44727300     -0.07871600
C        -0.78384200     -2.46656000     -0.34501400
C        -1.18704700     -1.12863500     -0.27141600
C        -2.51986600     -0.76699000      0.07568700
C        -3.46005100     -1.77217000      0.33490800
N        -0.44876500      0.02740100     -0.49661200
C        -1.25974900      1.13268400     -0.26545600
C        -2.56664200      0.68350800      0.07912100
C        -0.94602600      2.49458200     -0.33297500
C        -1.96559500      3.40939100     -0.06336300
C        -3.26471100      2.98278600      0.26875500
C        -3.57071900      1.62373700      0.34230900
C         0.97074400      0.06750900     -0.74445400
C         1.79074100      0.05104100      0.55574900
P         3.57477700      0.03572900      0.29749300
O         3.73700700     -1.26411900     -0.67626900
O         3.76891300      1.32255800     -0.68755500
O         4.48884400      0.03218300      1.46904700
H        -3.78846500     -3.90084300      0.45795100
H        -1.45341400     -4.50011400     -0.12941300
H         0.24214000     -2.74036000     -0.59831900
H        -4.48785300     -1.51212600      0.59908600
H         0.05929000      2.83711200     -0.58516300
H        -1.74726400      4.47897700     -0.10993400
H        -4.03849800      3.72570200      0.47392500
H        -4.57923400      1.29540600      0.60462300
H         1.24739800     -0.79217500     -1.37127100
H         1.20805100      0.97058500     -1.32384800
H         1.55946600      0.93414100      1.17165700
H         1.54836600     -0.84188900      1.15313700
H         4.58962600     -1.69892700     -0.52286700
H         4.61687200      1.75771600     -0.51120800
