42
CC1(C)c2ccccc2N(CCP(=O)(O)O)c2ccccc21
C        -3.12570800      0.03180400      1.85542500
C        -2.97998600      0.03071800      0.30843100
C        -4.38393700      0.05443600     -0.30789900
C        -2.19590400     -1.22148500     -0.08097500
C        -0.79366400     -1.21966300      0.11391400
C        -0.07432200     -2.42075600     -0.04421200
C        -0.72297700     -3.59305300     -0.43265500
C        -2.09380800     -3.58818300     -0.68164300
C        -2.81293000     -2.40425500     -0.49808600
N        -0.14959900     -0.01626400      0.45393200
C         1.27107700     -0.03831400      0.74339800
C         2.15730700     -0.04904800     -0.51810600
P         3.91930500     -0.02185100     -0.16016300
O         4.05210200     -1.29486300      0.85382300
O         4.03081700      1.29388400      0.80296900
O         4.90463000     -0.03041000     -1.27272900
C        -0.75345700      1.20839500      0.11549000
C         0.00571000      2.38503600     -0.04200100
C        -0.60411500      3.57844000     -0.42925000
C        -1.97447900      3.61948100     -0.67736800
C        -2.73254300      2.45996500     -0.49458900
C        -2.15489000      1.25692000     -0.07901200
H        -2.14142400      0.01552100      2.34495000
H        -3.65914400      0.93650900      2.18695500
H        -3.68814500     -0.85563700      2.18570100
H        -4.94052400      0.94206500      0.02287800
H        -4.34657900      0.05589000     -1.40767200
H        -4.96857500     -0.81628600      0.01942400
H         1.00038400     -2.45366100      0.12355300
H        -0.14082400     -4.50998300     -0.55131700
H        -2.60628200     -4.49781000     -1.00136300
H        -3.88996600     -2.41499000     -0.66330300
H         1.51684000      0.83370300      1.36219200
H         1.49305400     -0.91847500      1.35955200
H         1.96682200     -0.94309300     -1.12955400
H         1.94826500      0.82321700     -1.15454400
H         4.92642600     -1.70528100      0.77229600
H         4.87464900      1.74744200      0.65560800
H         1.08113800      2.38271400      0.12480800
H         0.00812400      4.47561900     -0.54753800
H        -2.45658000      4.54598400     -0.99587500
H        -3.80867700      2.50665200     -0.65950800
