29
O=P(O)(O)CCc1cccc2ccccc12
C        -4.27761600     -1.69237200      0.00011700
C        -4.33464900     -0.31555200      0.00002600
C        -3.14858000      0.46855900     -0.00030300
C        -3.20158000      1.88971700      0.00011500
C        -3.02188200     -2.34525800      0.00013900
C        -1.85240400     -1.61299200     -0.00012600
C        -1.87260200     -0.18931700     -0.00055700
C        -0.67172200      0.60076400     -0.00032700
C        -0.78085500      1.97882500     -0.00007000
C        -2.04125100      2.62685400      0.00015100
C         0.66723800     -0.10565000      0.00006600
C         1.89654700      0.80328800      0.00012500
P         3.46725500     -0.08238900      0.00002600
O         3.30428200     -1.06589600     -1.29204200
O         4.73243000      0.69987800     -0.00063900
O         3.30441600     -1.06478100      1.29289700
H        -2.97942100     -3.43705700      0.00042300
H        -0.89752500     -2.13902800      0.00015900
H         0.11690000      2.59800300      0.00015600
H        -2.08121700      3.71865400      0.00041100
H         0.72463800     -0.77082400      0.87745100
H         0.72491500     -0.77106300     -0.87708100
H         1.91976400      1.45735900     -0.88610600
H         1.91985800      1.45717000      0.88649200
H         4.16166500     -1.18479000     -1.72791000
H         4.16235700     -1.18612100      1.72699100
H        -5.19717900     -2.28235300      0.00031800
H        -5.29914600      0.19904300      0.00011100
H        -4.17732500      2.38203600      0.00032600
