43
O=P(O)(O)CCc1ccc2c3cccc4cccc(c5cccc1c52)c43
C         1.47981700      2.81695400     -0.00009100
C         1.87806900      1.48218000     -0.00001000
C         0.87056200      0.46120300      0.00003500
C         1.23414300     -0.92626300      0.00015900
C         0.12345500      3.18000100     -0.00015500
C        -0.85899500      2.21227900     -0.00014100
C        -0.51903500      0.83320200     -0.00004600
C        -1.53691600     -0.17928200     -0.00003300
C        -1.14249400     -1.50325100      0.00005800
C         0.21537200     -1.86990500      0.00015200
C        -2.99239600      0.23278200     -0.00011500
C        -4.00330900     -0.91450000     -0.00012600
P        -5.72484600     -0.37757100     -0.00030700
O        -5.77099800      0.61850300     -1.29217400
O        -6.79740300     -1.40806800     -0.00092800
O        -5.77099600      0.61758100      1.29220700
H        -0.14988800      4.23767300     -0.00022000
H        -1.90579500      2.51360200     -0.00020200
H        -1.88682400     -2.30010800      0.00006500
H         0.45247000     -2.93322000      0.00022300
H        -3.19000600      0.87076700      0.87708600
H        -3.18993800      0.87071600     -0.87736900
H        -3.88910700     -1.55868000     -0.88643800
H        -3.88921600     -1.55859100      0.88626200
H        -6.63368200      0.55530400     -1.72922400
H        -6.63478100      0.55671300      1.72741200
C         3.30419500      1.09969000      0.00002400
C         6.04339100      0.35055300      0.00015400
C         4.32447500      2.04844900     -0.00010200
C         5.68348800      1.68049300     -0.00003900
H         7.09512000      0.05430500      0.00021300
H         4.08334900      3.11077000     -0.00025200
H         6.44926100      2.45959100     -0.00014700
C         2.65776600     -1.31129300      0.00029300
C         3.06454000     -2.64370400      0.00050600
C         3.66037100     -0.28823500      0.00019700
C         4.42503900     -3.00574800      0.00060500
H         2.32272900     -3.44162800      0.00060300
C         5.04730700     -0.66072800      0.00027900
C         5.40288300     -2.03489000      0.00048500
H         4.69737900     -4.06372900      0.00077800
H         6.46151700     -2.30540200      0.00055700
H         2.22490400      3.61143500     -0.00010600
