45
O=P(O)(O)CCc1ccc(N(c2ccccc2)c2ccccc2)cc1
C        -4.01691100      3.91055200     -0.12127700
C        -2.81087600      3.62013200     -0.76649200
C        -2.27363600      2.33378100     -0.72112000
C        -2.93057500      1.31507700     -0.00940400
C        -4.13778700      1.61223400      0.64659400
C        -4.67670100      2.89695900      0.58054400
N        -2.38345800      0.01105500      0.04641800
C        -3.22809500     -1.12065500     -0.04710500
C        -0.98633600     -0.16128500      0.19431300
C        -2.99781300     -2.25005600      0.75747100
C        -3.82573600     -3.36780600      0.65528400
C        -4.90475500     -3.37529100     -0.23396700
C        -5.14157100     -2.24952200     -1.02888900
C        -4.30856300     -1.13393000     -0.94618200
C         4.05465900      0.25812300     -0.37359400
P         5.85315000      0.14714100     -0.29705100
O         6.09768700     -1.45567900     -0.48667900
O         6.67517000      0.98707800     -1.20947800
O         6.13958000      0.42952800      1.28513300
C        -0.30209100     -1.13957100     -0.54547900
C         1.07207000     -1.31000800     -0.38714300
C         1.81100700     -0.50769000      0.49432200
C         1.11988800      0.47167900      1.22298400
C        -0.25649300      0.64075300      1.08732000
C         3.30766400     -0.65590700      0.61541600
H        -2.28704900      4.39995600     -1.32490500
H        -1.33918200      2.10812100     -1.23702800
H        -4.64958600      0.82761900      1.20584500
H        -2.16458700     -2.24399600      1.46177500
H        -3.63226200     -4.23717800      1.28862100
H        -4.48980400     -0.26263100     -1.57720600
H         3.79955100      1.31587800     -0.20006000
H         3.77107800      0.02730600     -1.41298200
H         6.92827200     -1.60985200     -0.96156900
H         6.98041000      0.89984100      1.38992500
H        -0.85732300     -1.76983400     -1.24192800
H         1.58463600     -2.08017000     -0.97061600
H         1.66827600      1.10472800      1.92659800
H        -0.77819500      1.39743500      1.67539100
H         3.63277500     -0.41085500      1.63805200
H         3.60352300     -1.69887400      0.42627600
H        -5.55506200     -4.24967100     -0.30642000
H        -5.97711500     -2.24266200     -1.73327400
H        -5.61650800      3.11046100      1.09584100
H        -4.43847700      4.91706300     -0.16488700
