70
O=P(O)(O)CCCn1c2ccccc2c2c3[nH]c4ccccc4c3c3c(c4ccccc4n3CCCP(=O)(O)O)c21
N         4.19475400      0.52172800     -0.78516300
C         3.11256900      0.02918900     -0.08669500
C         2.65571900     -1.29659900      0.03015100
C         1.52752200     -1.55288600      0.85263400
N         1.12824400     -2.88181400      0.67454100
C        -0.27111700     -3.29189600      0.74294500
C        -1.17200200     -2.39890400     -0.11811500
C        -2.65445500     -2.74263100      0.02354200
P        -3.70113700     -1.48406500     -0.73457700
O        -3.19622700     -1.27051000     -2.21985200
O        -5.11203900     -2.28180000     -0.83592800
O        -3.81104200     -0.20590700      0.07130000
C         2.01773200     -3.48583200     -0.22308600
C         2.02204500     -4.79212800     -0.71873400
C         3.03116500     -5.15515200     -1.61368000
C         4.01609300     -4.23481500     -2.01048100
C         4.00622100     -2.92826300     -1.52183200
C         3.00093000     -2.53844400     -0.62515200
C         2.42994000      1.11902700      0.52237400
C         1.28983500      0.81906900      1.29919500
C         0.90259400     -0.51657000      1.58994500
C        -0.18674800     -0.42438700      2.55435800
C        -0.88439100     -1.33781700      3.36052700
C        -1.92794700     -0.88452200      4.16988200
C        -2.27670900      0.47418300      4.20155600
C        -1.55420900      1.41260700      3.46134200
C        -0.49815000      0.95830800      2.67223500
N         0.38778400      1.71796000      1.89016000
C        -0.18605900      2.77881400      1.05215400
C        -1.15491200      2.17076300      0.03342200
C        -1.76754900      3.17711800     -0.94175400
P        -3.02655500      2.34656000     -1.93285300
O        -3.52502100      3.52831200     -2.91845000
O        -4.26930400      2.05329200     -0.98641500
O        -2.51241900      1.12863800     -2.66655400
C         3.19196400      2.31522100      0.20537600
C         3.12639600      3.66717500      0.58168400
C         4.07807000      4.56361800      0.09399900
C         5.10970200      4.13243400     -0.75813400
C         5.22523900      2.78997400     -1.12133100
C         4.27457200      1.89482600     -0.62599400
H        -0.33131900     -4.33540100      0.40626400
H        -0.62089800     -3.28233600      1.78187700
H        -1.02261900     -1.35308000      0.18562600
H        -0.86569400     -2.47034600     -1.17313200
H        -2.90414800     -3.71308100     -0.43436000
H        -2.95319500     -2.78295600      1.08409500
H        -2.90443100     -0.30983600     -2.44049100
H        -5.85358000     -1.68218700     -1.00772200
H         1.26816800     -5.51984500     -0.41346300
H         3.05517600     -6.17404300     -2.00676300
H         4.79588900     -4.54636700     -2.70882500
H         4.77692500     -2.22442800     -1.84480000
H        -0.59780100     -2.38811400      3.39437800
H        -2.47145400     -1.59619400      4.79544900
H        -3.10359600      0.80775600      4.83230400
H        -1.80131800      2.47434300      3.51464900
H         0.62460500      3.31112600      0.54185800
H        -0.69611600      3.50855400      1.69963000
H        -0.62120100      1.39975500     -0.54398900
H        -1.95632000      1.64534500      0.57607400
H        -2.25923500      4.01390100     -0.41930100
H        -1.01206200      3.60058800     -1.62274800
H        -4.06250500      3.18522100     -3.64824100
H        -4.16331000      1.15399200     -0.50970500
H         2.35907500      4.01514700      1.27365300
H         4.02661500      5.61453400      0.38715500
H         5.84140300      4.85369000     -1.12925700
H         6.04066500      2.44735900     -1.76256300
H         4.85622500     -0.04070600     -1.29978900
