24
O=C(O)Cc1cc(C(F)(F)F)cc(C(F)(F)F)c1
C         1.35995400      0.57453200      0.00704800
C         0.17779800      1.30306800     -0.16097800
C        -1.02617500      0.65280700     -0.42855000
C        -1.06921300     -0.74576700     -0.53163000
C        -2.36370400     -1.45767600     -0.83048400
C        -3.46054300     -1.20263700      0.19097200
O        -4.35719400     -2.20498400      0.19756800
O        -3.56078700     -0.22554000      0.88747700
C         0.11204400     -1.47031000     -0.35831900
C         1.31959600     -0.81412200     -0.09099700
H        -1.93891700      1.23444800     -0.55183200
H        -2.77372000     -1.12000300     -1.79991300
H        -2.21387400     -2.54166300     -0.92609200
H        -5.05118900     -1.96129800      0.83505300
H         0.09932000     -2.55931600     -0.43972600
H         2.30209800      1.08617300      0.20117500
C         2.56569600     -1.63682000      0.11973200
C         0.20512200      2.80369500     -0.00563400
F        -0.77378900      3.39623600     -0.70917300
F         1.37519400      3.32123200     -0.41933100
F         0.04661500      3.16697800      1.27934400
F         2.68497600     -2.59537500     -0.81718200
F         3.67848700     -0.88815600      0.07999000
F         2.54370600     -2.26033200      1.31235300
