16
OB(O)c1cc(F)c(F)c(F)c1
C         1.79997900      0.00000000      0.00000800
C         1.08877400     -1.20387700      0.00011400
C        -0.30038200     -1.21079800      0.00007000
C        -1.01416900      0.00000000     -0.00000600
C        -0.30038200      1.21079800     -0.00008600
C         1.08877500      1.20387700     -0.00011400
B        -2.58111200      0.00000000     -0.00002000
O        -3.21678200      1.20961300      0.00008300
O        -3.21678200     -1.20961300     -0.00007200
H        -0.82093400     -2.16954800      0.00012700
H        -0.82093400      2.16954900     -0.00015700
H        -4.18043200      1.18395300     -0.00021000
H        -4.18043100     -1.18395300      0.00025900
F         1.77941200      2.34692500     -0.00017000
F         1.77941200     -2.34692500      0.00017000
F         3.13020200      0.00000000      0.00000900
