84
O=P(O)(O)CCCn1c2ccccc2c2c1c1c3ccccc3n(CCCP(=O)(O)O)c1c1c3ccccc3n(CCCP(=O)(O)O)c21
O        -1.19563700      3.84280600      3.69272400
P        -0.52197900      2.69047300      2.77404400
C        -0.01574100      3.62334800      1.31557800
C         0.65935500      2.70752300      0.29307400
C         0.91005900      3.39086500     -1.05540100
N         1.35476200      2.41922000     -2.05896700
C         0.57982000      1.27508900     -2.30046600
C        -0.82541400      1.16692000     -2.35417200
C        -1.39416900     -0.13540600     -2.30046600
N        -2.77248700     -0.03635200     -2.05896700
C        -3.39160500     -0.90729900     -1.05540100
C        -2.67446100     -0.78274300      0.29307400
C        -3.13004100     -1.82530600      1.31557800
P        -2.06902800     -1.79728300      2.77404400
O        -2.32196100     -0.47201500      3.59841100
O        -2.73014900     -2.95685500      3.69272400
O        -0.62196100     -2.06365100      2.41722500
C        -3.10550900      1.32599100     -2.08052700
C        -4.36106700      1.91477300     -1.92362800
C        -4.46427900      3.30018400     -2.06990100
C        -3.33867000      4.07519100     -2.39066500
C        -2.07985900      3.48596100     -2.52482100
C        -1.93848800      2.10428600     -2.31908400
C         1.42329000      0.13137000     -2.35417200
C         0.81434900     -1.13968300     -2.30046600
C        -0.59787500     -1.29829000     -2.35417200
C        -0.85312100     -2.73092300     -2.31908400
C        -1.97900100     -3.54419100     -2.52482100
C        -1.85988400     -4.92896900     -2.39066500
C        -0.62590400     -5.51627100     -2.06990100
C         0.52229200     -4.73418100     -1.92362800
C         0.40441300     -3.35244500     -2.08052700
N         1.41772500     -2.38286800     -2.05896700
C         2.48154600     -2.48356700     -1.05540100
C         2.01510600     -1.92477900      0.29307400
C         3.14578200     -1.79804200      1.31557800
P         2.59100700     -0.89318900      2.77404400
O         3.92578600     -0.88595100      3.69272400
O         1.56975800     -1.77486900      3.59841100
O         2.09815400      0.49319200      2.41722500
C         2.79160900      0.62663700     -2.31908400
C         4.05886000      0.05823100     -2.52482100
C         5.19855400      0.85377800     -2.39066500
C         5.09018300      2.21608700     -2.06990100
C         3.83877500      2.81940800     -1.92362800
C         2.70109600      2.02645400     -2.08052700
O         0.75220300      2.24688500      3.59841100
O        -1.47619400      1.57045900      2.41722500
H        -1.60026900      3.47986300      4.49481000
H        -0.93391500      4.06750500      0.89648600
H         0.63772400      4.44657300      1.64587000
H         1.60058100      2.30189200      0.69549300
H         0.00000000      1.84344500      0.12395600
H        -0.00582800      3.88510900     -1.39490800
H         1.67881400      4.17146300     -0.97091300
H        -4.45200000     -0.63183600     -0.97091300
H        -3.36168900     -1.94760200     -1.39490800
H        -1.59647000     -0.92172300      0.12395600
H        -2.79378800      0.23519800      0.69549300
H        -4.16970700     -1.67100100      1.64587000
H        -3.05560500     -2.84254700      0.89648600
H        -1.94012500      0.37875300      3.16193000
H        -2.21351600     -3.12580500      4.49481000
H        -5.24687700      1.31119500     -1.71834100
H        -5.43975000      3.77979600     -1.96194700
H        -3.45023700      5.14995500     -2.55048000
H        -1.22782400      4.09508200     -2.82664900
H        -2.93253300     -3.11086800     -2.82664900
H        -2.73487300     -5.56297100     -2.55048000
H        -0.55352500     -6.60085900     -1.96194700
H         1.48791100     -5.19952600     -1.71834100
H         3.36751700     -1.93750700     -1.39490800
H         2.77318600     -3.53962700     -0.97091300
H         1.59647000     -0.92172300      0.12395600
H         1.19320700     -2.53709000      0.69549300
H         3.53198300     -2.77557100      1.64587000
H         3.98952000     -1.22495800      0.89648600
H         3.81378400     -0.35405800      4.49481000
H         0.64205200     -1.86957400      3.16193000
H         4.16035700     -0.98421400     -2.82664900
H         6.18511100      0.41301600     -2.55048000
H         5.99327400      2.82106300     -1.96194700
H         3.75896600      3.88833200     -1.71834100
H         1.29807200      1.49082100      3.16193000
