93
O=P(O)(O)CCCCn1c2ccccc2c2c1c1c3ccccc3n(CCCCP(=O)(O)O)c1c1c3ccccc3n(CCCCP(=O)(O)O)c21
O         1.45461800      3.86867500      3.88879700
P         0.75018400      2.47485700      3.44027800
C         1.03892000      3.12823900      0.67601100
C         0.29486400      3.71810300     -0.52322300
C         1.09278900      3.72800800     -1.82463600
N         1.43242800      2.39994500     -2.32069800
C         0.60783100      1.27406300     -2.38939100
C        -0.80873500      1.18799400     -2.44429000
C        -1.40728600     -0.11063500     -2.38939100
N        -2.79462700      0.04054600     -2.32069800
C        -3.77494400     -0.91762100     -1.82463600
C        -3.36740300     -1.60369100     -0.52322300
C        -3.22859500     -0.66438800      0.67601100
P        -2.51838200     -0.58775000      3.44027800
O        -2.22139300      0.94944000      3.22808900
O        -4.07768000     -0.67460100      3.88879700
O        -1.58820700     -1.28622600      4.40918700
C        -3.10518100      1.38953300     -2.45587200
C        -4.36760300      1.99179100     -2.51154700
C        -4.43834200      3.36496900     -2.73766800
C        -3.26869100      4.11715400     -2.92758200
C        -2.01424100      3.51483700     -2.85905600
C        -1.90301800      2.14106800     -2.58034500
C         1.43320100      0.10638800     -2.44429000
C         0.79945600     -1.16342800     -2.38939100
C        -0.62446600     -1.29438200     -2.44429000
C        -0.90271000     -2.71859600     -2.58034500
C        -2.03681800     -3.50180200     -2.85905600
C        -1.93121400     -4.88934700     -2.92758200
C        -0.69497800     -5.52620100     -2.73766800
C         0.45886000     -4.77835100     -2.51154700
C         0.34921900     -3.38393200     -2.45587200
N         1.36219900     -2.44049100     -2.32069800
C         2.68215500     -2.81038700     -1.82463600
C         3.07253900     -2.11441100     -0.52322300
C         2.18967500     -2.46385100      0.67601100
P         1.76819700     -1.88710700      3.44027800
O         2.62306200     -3.19407400      3.88879700
O         0.28845800     -2.39850300      3.22808900
O         1.90800800     -0.73231500      4.40918700
C         2.80572800      0.57752800     -2.58034500
C         4.05105800     -0.01303500     -2.85905600
C         5.19990600      0.77219300     -2.92758200
C         5.13331900      2.16123200     -2.73766800
C         3.90874300      2.78656000     -2.51154700
C         2.75596100      1.99439900     -2.45587200
O         1.93293600      1.44906300      3.22808900
O        -0.31980100      2.01854100      4.40918700
C         2.49609200     -1.51609900      1.83631700
C        -2.56102600     -1.40363000      1.83631700
C         0.06493400      2.91972900      1.83631700
H         1.99121500      3.76315600      4.68880900
H         1.86448900      3.79209000      0.98140400
H         1.49726400      2.16324000      0.40537100
H        -0.64429500      3.16834600     -0.66857200
H         0.00000000      4.75821800     -0.30196400
H         0.57044000      4.30826100     -2.59766700
H         2.04217300      4.25032800     -1.65363100
H        -4.70197800     -0.35659000     -1.65363100
H        -4.01628300     -1.66011500     -2.59766700
H        -4.12073800     -2.37910900     -0.30196400
H        -2.42172100     -2.14214900     -0.66857200
H        -2.62205300      0.21504800      0.40537100
H        -4.21629100     -0.28135000      0.98140400
H        -1.45393500      1.36999300      3.80725900
H        -4.25459600     -0.15713600      4.68880900
H        -5.28254600      1.40663200     -2.41331000
H        -5.41497500      3.85070000     -2.79518900
H        -3.33991300      5.18495000     -3.14573500
H        -1.13399200      4.12091200     -3.04942700
H        -3.00181800     -3.04252200     -3.04942700
H        -2.82034200     -5.48492500     -3.14573500
H        -0.62731700     -6.61485600     -2.79518900
H         1.42309400     -5.27813500     -2.41331000
H         3.44584300     -2.64814600     -2.59766700
H         2.65980500     -3.89373800     -1.65363100
H         4.12073800     -2.37910900     -0.30196400
H         3.06601600     -1.02619800     -0.66857200
H         1.12478900     -2.37828800      0.40537100
H         2.35180200     -3.51074000      0.98140400
H         2.26338200     -3.60602100      4.68880900
H        -0.45948100     -1.94414100      3.80725900
H         4.13581000     -1.07839000     -3.04942700
H         6.16025500      0.29997400     -3.14573500
H         6.04229100      2.76415600     -2.79518900
H         3.85945200      3.87150300     -2.41331000
H         1.91341600      0.57414900      3.80725900
H         3.58156200     -1.45863900      2.02414800
H         2.17701200     -0.48841600      1.59832500
H        -3.05400000     -2.37240400      2.02414800
H        -1.51148700     -1.64113900      1.59832500
H        -0.52756300      3.83104400      2.02414800
H        -0.66552500      2.12955600      1.59832500
