69
O=P(O)(O)CCCCn1c2ccccc2c2cc(-c3ccc4c(c3)c3ccccc3n4-c3ccccc3)ccc21
C        -3.13421300      5.36631100     -0.59907100
C        -4.43540700      4.88042800     -0.82481100
C        -4.68780400      3.51494200     -0.96816300
C        -3.60019500      2.63806700     -0.88402800
C        -2.27803300      3.11359000     -0.64759800
C        -2.05351100      4.48882200     -0.50881200
N        -3.56965200      1.25355000     -1.00173800
C        -2.26411500      0.81721200     -0.81417200
C        -1.42128300      1.94358000     -0.60006500
C        -1.74322300     -0.48114700     -0.81637700
C        -0.37336000     -0.63699400     -0.61464600
C         0.49404200      0.46374000     -0.40976600
C        -0.04976700      1.75737400     -0.40402600
C        -6.57201600     -0.90594300      0.01306900
C        -7.20241300     -1.31100400      1.34900800
P        -8.65148400     -2.37666300      1.21331400
O        -9.33867400     -2.82808700      2.45280100
O        -9.60766200     -1.51409300      0.21031300
O        -8.08305900     -3.60205300      0.29688500
C        -4.72582900      0.39873800     -1.14659900
C        -5.35198600     -0.00454700      0.19150800
H        -5.26813800      5.58511800     -0.88744900
H        -5.70271400      3.15088400     -1.13747900
H        -1.04429300      4.86755300     -0.33019000
H        -2.38320800     -1.35410100     -0.95637800
H         0.04217800     -1.64617500     -0.58604900
H         0.60308500      2.62216600     -0.26931100
H        -6.28911400     -1.81639100     -0.54100200
H        -7.33111600     -0.39386700     -0.60134400
H        -7.52601700     -0.42617600      1.92177900
H        -6.48127600     -1.85451800      1.98166900
H       -10.53921100     -1.65815300      0.43559900
H        -8.50324800     -4.43463300      0.56055400
H        -5.46800900      0.92052500     -1.77166700
H        -4.42580900     -0.49820400     -1.71164200
H        -4.58859700     -0.51509500      0.80316300
H        -5.63216300      0.90871900      0.74375400
C         1.94812000      0.24828900     -0.20323600
C         2.63447100     -0.75548300     -0.90231500
C         2.67134000      1.05368200      0.71047300
C         4.00560900     -0.94048000     -0.69919800
H         2.10283600     -1.37976500     -1.62328500
C         4.03763000      0.89366000      0.92966700
H         2.13304700      1.81030600      1.28469800
C         4.70476300     -0.10352600      0.21116000
H         4.56234500      1.51848400      1.65319700
H        -2.97245500      6.44099800     -0.49109700
C         4.97729200     -1.87143000     -1.24120600
C         6.22511000     -1.56399200     -0.63137700
C         4.90271300     -2.90901100     -2.17933400
C         7.39132400     -2.26307600     -0.96098800
C         6.05972800     -3.61748400     -2.50096800
H         3.94996500     -3.15455300     -2.65442400
C         7.28924700     -3.29145600     -1.89898700
H         8.34986000     -2.01065400     -0.50643100
H         6.01546400     -4.42938500     -3.23014700
H         8.18634400     -3.85224900     -2.17219400
N         6.04716800     -0.49071200      0.24704900
C         7.05842000      0.10961400      1.03486700
C         7.28249300      1.49157800      0.95792100
C         7.83903700     -0.67503800      1.89556900
C         8.27365700      2.08164500      1.74394100
H         6.68263700      2.09295700      0.27297800
C         8.84163700     -0.08043200      2.66353000
H         7.64655000     -1.74691300      1.96371000
C         9.05942800      1.29871800      2.59475500
H         8.44168600      3.15931000      1.68018300
H         9.44732700     -0.69817700      3.33075700
H         9.83940900      1.76224200      3.20282600
