39
O=P(O)(O)CCCCn1c2ccccc2c2ccccc21
C         4.13802300      3.04603400      0.42212100
C         2.87292900      3.42994100     -0.05995400
C         1.91945500      2.48240400     -0.43623700
C         2.26288400      1.13026200     -0.32244100
C         3.53628700      0.72526900      0.17129200
C         4.47442000      1.69751700      0.54046700
N         1.51683200     -0.00006300     -0.63387100
C         2.26304600     -1.13027900     -0.32244400
C         3.53638700     -0.72510500      0.17129600
C         1.91980100     -2.48247000     -0.43622500
C         2.87340300     -3.42987100     -0.05992600
C         4.13844400     -3.04578600      0.42215000
C         4.47465300     -1.69722200      0.54048500
C         0.13606100     -0.00015300     -1.06076600
C        -0.85707900     -0.00021000      0.10517700
P        -5.04221300      0.00001600      0.31179200
O        -5.11352800      1.29320200     -0.68155500
O        -5.11411800     -1.29295900     -0.68184100
O        -6.08895400     -0.00010600      1.36850700
H         4.86027500      3.81361500      0.70839700
H         2.62858700      4.49193800     -0.13997300
H         0.93980200      2.79340600     -0.80340600
H         5.45597700      1.40148200      0.91832800
H         0.94018800     -2.79360600     -0.80338700
H         2.62920900     -4.49190300     -0.13993400
H         4.86080300     -3.81326600      0.70842600
H         5.45617900     -1.40104500      0.91831800
H        -0.03014900      0.88049600     -1.70139700
H        -0.03002300     -0.88079000     -1.70144700
H        -0.66397600     -0.88342800      0.73770400
H        -0.66392000      0.88294800      0.73777300
H        -5.97875300      1.72300100     -0.60430200
H        -5.97855200     -1.72394200     -0.60233700
C        -2.30908700     -0.00014200     -0.36849900
H        -2.49823700     -0.88243300     -1.00231600
H        -2.49815500      0.88216800     -1.00230900
C        -3.30446000     -0.00008200      0.79591400
H        -3.16609500     -0.88539200      1.43836700
H        -3.16598900      0.88522100      1.43835500
