56
CC1(C)c2ccccc2-c2ccc3c(c21)c1ccccc1n3CCCCP(=O)(O)O
C         1.08973000      4.49602600      0.36548500
C        -0.27301200      4.52028400      0.02266800
C        -0.92954100      3.36128100     -0.38893100
C        -0.18984100      2.17451100     -0.45307700
C         1.19259000      2.12132500     -0.10080700
C         1.82034300      3.30951500      0.30649200
N        -0.61178800      0.91266400     -0.84012400
C         0.44765100      0.02493200     -0.71899500
C         1.60966100      0.73309200     -0.27000600
C         0.44766200     -1.35227500     -0.97754500
C         1.63585500     -2.05664300     -0.80049500
C         2.79139200     -1.38579900     -0.36905800
C         2.79471500     -0.00009600     -0.09984300
C        -1.97093200      0.55135200     -1.17479600
C        -2.80507800      0.14266500      0.04261500
P        -6.76608900     -1.14564100      0.50011400
O        -7.29910300      0.14053500     -0.34946300
O        -6.54360400     -2.31734700     -0.61594900
O        -7.66536900     -1.55569300      1.61150300
H         1.58277400      5.41656800      0.68496800
H        -0.82866000      5.45922200      0.08042500
H        -1.98894400      3.38361900     -0.64963800
H         2.87403600      3.31789400      0.57965600
H        -0.45782700     -1.86412700     -1.30661700
H        -2.44037200      1.40466700     -1.68906300
H        -1.94231700     -0.26910700     -1.90899400
H        -2.30330500     -0.69706600      0.55302700
H        -2.82001100      0.97877600      0.76233000
H        -8.25792500      0.23767300     -0.24633400
H        -7.18326500     -3.03103400     -0.47198700
C        -4.23129400     -0.24998900     -0.33752300
H        -4.72620100      0.58662600     -0.85809800
H        -4.21153100     -1.08976700     -1.05194000
C        -5.07358600     -0.64859300      0.87819300
H        -4.62015900     -1.49808700      1.41533900
H        -5.14998800      0.18128200      1.60001500
H         1.66503700     -3.13104000     -0.99507600
C         4.18536400      0.44805200      0.35745200
C         4.96421600     -0.86531500      0.30709100
C         4.13399100     -1.92185100     -0.11703600
C         6.29989900     -1.09815500      0.61669000
H         6.94876900     -0.28257100      0.94660500
C         6.81051200     -2.39925800      0.50130100
H         7.85815400     -2.59477700      0.74227400
C         5.98594000     -3.44961500      0.07982100
C         4.64182200     -3.21926700     -0.23287100
H         4.00332200     -4.04272000     -0.56201700
H         6.39657400     -4.45870100     -0.00595300
C         4.16146100      0.98765800      1.80172500
H         3.53028300      1.88206700      1.89240200
H         3.76724500      0.22497600      2.48933300
H         5.17937000      1.25087000      2.12958500
C         4.80461600      1.46514600     -0.62215600
H         4.86139900      1.03692700     -1.63371700
H         4.21206900      2.38840800     -0.67946700
H         5.82511400      1.73154800     -0.30498300
