63
O=P(O)(O)CCCCn1c2ccc3cc4ccccc4cc3c2c2c3cc4ccccc4cc3ccc21
O         7.94010900     -1.49475500      0.05809700
P         7.76875500     -0.03168300      0.75983200
C         5.98264800      0.05075200      1.00102000
C         5.14962900     -0.19047100     -0.26139400
C         3.64829000     -0.09914100      0.00425500
C         2.81924700     -0.33861400     -1.25994200
N         1.39206300     -0.25176100     -1.02805700
C         0.57250200     -1.29537400     -0.64775700
C        -0.74118600     -0.81144600     -0.44502300
C        -1.79574500     -1.77996900     -0.23267500
C        -1.40429400     -3.15860400      0.01232300
C        -2.38790200     -4.12065900      0.26788800
C        -3.75781100     -3.81658000      0.23770400
C        -4.15198900     -2.47447300     -0.10658600
C        -3.16231800     -1.50244600     -0.33754400
C        -0.02325800     -3.54376800     -0.07938700
C         0.94678700     -2.65045800     -0.44601400
C         0.65280400      0.91449300     -1.01190900
C        -0.67062700      0.62777000     -0.60330200
C        -1.56157600      1.74149000     -0.35467900
C        -1.11594300      3.06448200     -0.76098000
C         0.20989400      3.25178400     -1.28160900
C         1.09913300      2.21504100     -1.36674600
C        -1.95925400      4.16546300     -0.57401900
C        -3.21144800      4.05187000      0.04968500
C        -3.61393200      2.75934400      0.54196200
C        -2.77628000      1.64939900      0.33218100
O         7.99612800      1.04024000     -0.45026500
O         8.66762100      0.18633300      1.92433800
C        -4.86122400      2.64638200      1.22978600
C        -5.67140600      3.74235100      1.40439300
C        -5.27781000      5.01844100      0.90641500
C        -4.08031200      5.16792100      0.24988000
C        -4.77215200     -4.78955300      0.49284100
C        -6.10261100     -4.45861800      0.40495900
C        -6.49342000     -3.13443700      0.05127200
C        -5.54525600     -2.17221500     -0.20005000
H         8.79144100     -1.88589600      0.30629800
H         5.77867900      1.04625300      1.42889700
H         5.74405000     -0.68798800      1.78391600
H         5.44087400      0.54505900     -1.02965700
H         5.39999900     -1.18250400     -0.67248600
H         3.35177500     -0.83575200      0.77045100
H         3.39463200      0.89328100      0.41408800
H         3.09019200      0.39189400     -2.03755600
H         3.04253200     -1.32997100     -1.68242000
H        -2.07845600     -5.15051200      0.46698900
H        -3.48741900     -0.51111400     -0.64310900
H         0.23483700     -4.58831200      0.10937800
H         1.98447000     -2.96796000     -0.55983000
H         0.51347700      4.26103300     -1.56898600
H         2.12088400      2.38169000     -1.71126600
H        -1.61659500      5.15212900     -0.89827800
H        -3.08210100      0.69707700      0.75741400
H         8.83943500      1.50202800     -0.32815600
H        -5.16157700      1.66618800      1.60967900
H        -6.62510400      3.64076100      1.92789000
H        -5.93453900      5.87914400      1.05347500
H        -3.77132900      6.14623300     -0.12771400
H        -4.46822700     -5.80606400      0.75643500
H        -6.86976500     -5.21105200      0.60268600
H        -7.55572300     -2.88836400     -0.01848800
H        -5.84213800     -1.15517900     -0.46977100
