65
CC(C)(C)c1cc2ccc3cc4c(c5ccc(c1)c2c35)c1ccccc1n4CCCCP(=O)(O)O
C        -1.94476300      0.12171400     -0.31089900
C        -0.98234200     -0.84895700     -0.75642600
C         0.35868500     -0.47957600     -0.93078100
C         0.73283000      0.83797900     -0.66671700
C        -0.19172600      1.82426700     -0.21448900
C        -1.55212900      1.47153600     -0.03660800
N         1.99271500      1.40851100     -0.78268000
C         1.92272000      2.73453400     -0.38345300
C         0.57371600      3.04612900     -0.03115800
C         2.94893900      3.68197100     -0.30706000
C         2.61969300      4.96921700      0.11765900
C         1.29818500      5.30236900      0.46221200
C         0.27896400      4.35332300      0.39154200
C         5.15914500     -0.69331200     -0.26899100
C         5.84616200     -1.31887500      0.94854200
P         7.35281800     -2.24084500      0.58215500
O         8.09376500     -2.88899000      1.69708400
O         6.84719200     -3.29719200     -0.55657600
O         8.22075300     -1.13022100     -0.23861600
C         3.20523700      0.69475000     -1.11376000
C         3.88745300      0.06580700      0.10440900
H         1.08447400     -1.22263700     -1.26536600
H         3.97740000      3.42676400     -0.56785100
H         3.40307900      5.72776200      0.18525500
H         5.86844600     -0.01569200     -0.77239500
H         4.92267300     -1.48826000     -0.99575900
H         5.17536000     -2.02503700      1.46537500
H         6.12837300     -0.54945700      1.68612100
H         7.27592800     -4.15521000     -0.41788300
H         9.16921300     -1.28976900     -0.11881900
H         2.96037400     -0.08133500     -1.85610800
H         3.89274300      1.39247900     -1.61736400
H         4.12004000      0.86108600      0.83305500
H         3.17324500     -0.61190500      0.60237900
C        -2.55924700      2.39338800      0.40521000
H        -2.27736700      3.42304600      0.61554600
C        -3.30692300     -0.27227500     -0.13973300
C        -4.28404000      0.66724500      0.30035300
C        -3.86124000      2.01059200      0.56568400
H        -4.60726800      2.73507400      0.90260700
H        -0.73521000      4.63898300      0.66880300
H         1.06703100      6.31720800      0.79287000
C        -1.42739700     -2.19375200     -1.01428700
C        -3.71897000     -1.61493400     -0.40596100
C        -5.06308200     -1.96946700     -0.23089200
C        -5.62331200      0.25919400      0.46023900
C        -6.03587200     -1.05036100      0.20023600
H        -6.33949600      1.00809000      0.79805900
H        -5.34737900     -3.00258700     -0.44334800
C        -2.72876000     -2.56094500     -0.84872000
H        -3.04413000     -3.58762400     -1.05176900
H        -0.68731600     -2.92404300     -1.35193400
C        -7.49286400     -1.51066000      0.36619300
C        -8.41106900     -0.37155400      0.83453400
H        -8.10123300      0.02656300      1.81289800
H        -8.42802700      0.46105300      0.11463100
H        -9.44205200     -0.74353600      0.93786500
C        -8.01954700     -2.03135100     -0.98776400
H        -7.42700800     -2.88174500     -1.35627200
H        -9.06461000     -2.36769700     -0.89057400
H        -7.98285200     -1.23999500     -1.75258900
C        -7.55354100     -2.64328600      1.41250600
H        -7.18028000     -2.29542200      2.38830100
H        -8.59146100     -2.98982900      1.54478300
H        -6.94707800     -3.51026600      1.11106500
