43
O=P(O)(O)CCCCc1ccc2ccc3cccc4ccc1c2c34
O         7.63718300      0.60524400      0.00426400
P         6.35775400     -0.15428100     -0.00074900
O         6.17764900     -1.13032000     -1.29600100
O         6.18306200     -1.13781600      1.29088500
C         4.79867700      0.75176900     -0.00257000
C         3.53982800     -0.12097100     -0.00119700
C        -0.33208900      0.53912600      0.00026600
C        -0.41819000      1.93627200      0.00017200
C        -1.64438300      2.60041900      0.00011600
C        -2.85022400      1.88645300      0.00012200
C        -4.13128400      2.54004200     -0.00001900
C        -5.29118300      1.82492100     -0.00004800
C        -5.27781300      0.38646900      0.00007200
C        -6.46087700     -0.37213000      0.00003000
C        -6.41708900     -1.76746300      0.00014500
C        -5.19366200     -2.43620200      0.00030700
C        -3.98368100     -1.71865600      0.00034800
C        -2.70460500     -2.36963400      0.00049500
C        -1.54158500     -1.65587600      0.00049000
C        -1.53558900     -0.21585900      0.00034500
C        -2.79836900      0.45741700      0.00024500
C        -4.01699300     -0.29022400      0.00022900
C         2.25347100      0.70574500     -0.00049800
C         1.00490700     -0.17379100      0.00017600
H         7.03921100     -1.29969000     -1.70617600
H         7.03675900     -1.24816100      1.73606000
H         4.82893800      1.40938700      0.88214000
H         4.82849400      1.40771200     -0.88849600
H         3.55895500     -0.78217600     -0.88306300
H         3.56049500     -0.78154900      0.88115600
H         0.49430600      2.53282800      0.00010900
H        -1.67121900      3.69304100      0.00002600
H        -4.15357200      3.63284600     -0.00011900
H        -6.25783300      2.33493100     -0.00017300
H        -7.42284400      0.14659000     -0.00010300
H        -7.34830100     -2.33896400      0.00010500
H        -5.16282600     -3.52865400      0.00039400
H        -2.67833500     -3.46239600      0.00060300
H        -0.59227700     -2.19151000      0.00059800
H         2.24751600      1.36855200      0.88228600
H         2.24659300      1.36837400     -0.88339600
H         1.05020500     -0.84565400     -0.87591800
H         1.05068600     -0.84514000      0.87664800
