45
O=P(O)(O)CCCCCCn1c2ccccc2c2ccccc21
C        -5.14151000     -3.06630100     -0.52756100
C        -3.90404400     -3.43443100      0.03247000
C        -2.98633300     -2.47515700      0.46374000
C        -3.33726400     -1.12717000      0.32474200
C        -4.58278700     -0.73812800     -0.24717800
C        -5.48535400     -1.72202300     -0.67026700
N        -2.62452600      0.01189100      0.67785100
C        -3.36336400      1.13261700      0.31930500
C        -4.59979800      0.71203800     -0.25013700
C        -3.04425300      2.48908600      0.45178600
C        -3.98491000      3.42461100      0.01793500
C        -5.21406600      3.02516300     -0.53889600
C        -5.52588500      1.67256200     -0.67615900
C         3.71813800      0.01785300      0.18047700
C         4.79934700     -0.04879800     -0.90267800
P         6.49610000     -0.00268200     -0.29387400
O         7.61800500     -0.06105900     -1.26944200
O         6.49557900      1.35265100      0.61638500
O         6.50090900     -1.22890900      0.78341300
C         2.30266600     -0.02152100     -0.39559900
C         1.21637700      0.03123700      0.67856600
C        -0.20156400      0.00379900      0.11144400
C        -1.27665000      0.02703100      1.20119300
H        -5.83595000     -3.84286200     -0.85547300
H        -3.65301800     -4.49339400      0.13033200
H        -2.02740700     -2.77377500      0.89094400
H        -6.44531300     -1.43816900     -1.10823000
H        -2.09220000      2.81228600      0.87640400
H        -3.75886400      4.48957500      0.11149500
H        -5.92728300      3.78377100     -0.86851100
H        -6.47923600      1.36416800     -1.11195100
H         3.85938300     -0.82148000      0.88126000
H         3.85565100      0.93930800      0.76992200
H         4.70856400      0.79197300     -1.61054900
H         4.71417200     -0.97483200     -1.49536200
H         7.35976500      1.78743700      0.55856100
H         7.37630700     -1.64402800      0.80688400
H         2.16674700      0.82186100     -1.09680100
H         2.17568700     -0.93865200     -0.99897400
H         1.35221400     -0.81759100      1.37392600
H         1.35192200      0.94287300      1.28911300
H        -0.35735300      0.86584700     -0.55971600
H        -0.34348000     -0.89847900     -0.50785500
H        -1.15691600     -0.83783000      1.87361800
H        -1.16164800      0.92270600      1.83215600
