28
O=C(O)Cn1c2ccccc2c2ccccc21
C        -2.81578400     -2.40240000      0.23327600
C        -1.65850100     -3.11083400     -0.13761400
C        -0.46532400     -2.44960400     -0.43546000
C        -0.45831300     -1.05370000     -0.35799400
C        -1.61660500     -0.32215800      0.02635400
C        -2.80075600     -1.01002200      0.31857600
N         0.57595300     -0.15801800     -0.61331200
C         0.12765800      1.13455900     -0.35780100
C        -1.24116800      1.07972400      0.02664300
C         0.81989200      2.34686600     -0.43464200
C         0.11704200      3.51590200     -0.13594500
C        -1.23941800      3.48067300      0.23474500
C        -1.92277700      2.26730500      0.31931000
C         1.92732300     -0.51756000     -0.91836800
C         2.85013200     -0.74744300      0.27716500
O         4.01657000     -1.02161200      0.16059200
O         2.22284500     -0.61522600      1.45296300
H        -3.73239000     -2.95091400      0.46066800
H        -1.69016000     -4.20166200     -0.19066100
H         0.42785900     -3.01294400     -0.71160800
H        -3.69899100     -0.46214800      0.61295800
H         1.87489700      2.38812900     -0.71173400
H         0.63485200      4.47653700     -0.18852400
H        -1.75895700      4.41385900      0.46273800
H        -2.97457200      2.24186800      0.61380900
H         2.39857000      0.25806400     -1.54122500
H         1.94943600     -1.43884700     -1.52075500
H         2.88205200     -0.77894200      2.14961400
