31
O=C(O)CCn1c2ccccc2c2ccccc21
C         2.38232400      3.16696200     -0.29111100
C         1.04182600      3.46487300      0.01535300
C         0.11532600      2.45574100      0.28471400
C         0.56562100      1.13146100      0.24255000
C         1.91639600      0.81194000     -0.07509800
C         2.82490100      1.84475700     -0.33834800
N        -0.13499300     -0.04666800      0.47721900
C         0.72082100     -1.12580200      0.28323500
C         2.01610200     -0.63532700     -0.04802000
C         0.45856100     -2.49715900      0.37517800
C         1.51657200     -3.37800400      0.14345600
C         2.80436600     -2.90949900     -0.17571300
C         3.05965200     -1.54167700     -0.27380300
C        -1.55424300     -0.13116800      0.71521200
C        -2.36598800     -0.20661800     -0.59004900
C        -3.85816900     -0.22105200     -0.36002700
O        -4.63360600     -1.03120000     -0.79808000
O        -4.24915700      0.81139300      0.42213600
H         3.08053200      3.98116100     -0.49688400
H         0.71612700      4.50749300      0.04183300
H        -0.92312900      2.69943100      0.51661500
H         3.86551800      1.61610800     -0.58042100
H        -0.53715100     -2.87415100      0.61554200
H         1.33744900     -4.45380600      0.20926300
H         3.60919700     -3.62650400     -0.35144000
H         4.05944900     -1.18027000     -0.52576400
H        -1.75523200     -1.01522600      1.33933900
H        -1.86908800      0.74507800      1.29853000
H        -2.12389400      0.67700000     -1.20395000
H        -2.10345700     -1.10388700     -1.16548000
H        -5.21366500      0.73614000      0.52465200
