51
O=P(O)(O)CCCCn1c2ccccc2c2c3ccccc3c3ccccc3c21
C        -3.79692800     -1.44243500      0.11219200
C        -2.53654800     -2.14993900     -0.11536000
C        -1.30969300     -1.42854900     -0.29957200
C        -1.38358500      0.01413300     -0.29047100
C        -2.57829200      0.69992800     -0.01079000
C        -3.81130200     -0.01629400      0.19152700
N        -0.36908400      0.94631600     -0.51386800
C        -0.88708800      2.21908100     -0.33491600
C        -2.27268700      2.11638100     -0.02061000
C        -0.22948800      3.45275300     -0.43096100
C        -0.97376800      4.60825700     -0.20989500
C        -2.34384500      4.53451900      0.10341400
C        -2.99307900      3.30703600      0.19950400
C         1.00244600      0.73254400     -0.93442400
C         1.98331800      0.57073000      0.22939100
P         6.07625400     -0.30456900      0.40307900
O         5.84518300     -1.63896200     -0.51022500
O         6.39748300      0.88230400     -0.66868400
O         7.12023100     -0.47927200      1.44772800
H         0.83502800      3.51547200     -0.66128300
H        -0.48490600      5.58303600     -0.27506500
H        -2.90616700      5.45447000      0.27775000
H        -4.05207300      3.29146900      0.45021400
H         1.04095400     -0.13157900     -1.61018700
H         1.29818600      1.59625800     -1.54861400
H         1.97943900      1.49597500      0.82983500
H         1.62592700     -0.22846000      0.89993700
H         6.56817700     -2.26687300     -0.36102900
H         7.34759700      1.07325600     -0.68424200
C         3.39753000      0.25392100     -0.25207900
H         3.75061300      1.04296500     -0.93640800
H         3.39131700     -0.68082600     -0.83772400
C         4.39297200      0.10948600      0.90254800
H         4.46488600      1.04077500      1.48823600
H         4.07914300     -0.68371300      1.60119800
C        -5.02114600     -2.13346100      0.27541000
C        -5.04074900      0.64022800      0.44105200
C        -2.48644700     -3.56359200     -0.13610000
C        -0.10847300     -2.17064400     -0.44255100
C        -6.21146300     -1.46830700      0.51524500
H        -7.13768000     -2.03458900      0.63578600
C        -6.21981800     -0.06595400      0.60139000
H        -7.15365200      0.46875600      0.79042300
C        -1.30290400     -4.26064100     -0.30608000
H        -1.30858800     -5.35284800     -0.31310300
C        -0.09907600     -3.55457300     -0.44907400
H         0.84728300     -4.08905900     -0.55822700
H        -5.04338200     -3.22045500      0.21176300
H        -5.06436500      1.72452100      0.50117700
H        -3.40443400     -4.13357100     -0.00347500
H         0.84396900     -1.66088100     -0.52937100
