17
Nc1ccc(C(=O)O)cc1
C        -2.13611200     -0.01515600     -0.00605900
C        -1.43324600      1.21096900     -0.00461900
C        -0.04675300      1.22847200     -0.00273600
C         0.69128100      0.03266500     -0.00162500
C        -0.00379600     -1.18873500     -0.00241100
C        -1.39185200     -1.21583000     -0.00420200
C         2.16664900      0.11191700      0.00235300
O         2.76622000     -1.10352600      0.00310600
O         2.81159300      1.13793300      0.00486400
H        -1.99343400      2.14979700     -0.00728600
H         0.49893600      2.17382900     -0.00033800
H         0.55884800     -2.12298900      0.00017700
H        -1.91981600     -2.17315000     -0.00670400
H         3.72148600     -0.92788400      0.00520400
N        -3.51026400     -0.03830300     -0.04645300
H        -3.98272700     -0.90014300      0.19327600
H        -4.01098600      0.80759300      0.19287400
