23
NCCc1ccc(C(=O)O)cc1
N        -4.83546100     -0.05071300      0.44621500
C        -3.39764500      0.00454600      0.67047800
C        -2.64315800      0.00509200     -0.66699900
C        -1.14751400     -0.00529000     -0.48513900
C        -0.44868200     -1.21874800     -0.37206100
C         0.92613200     -1.23573800     -0.15495300
C         1.63695400     -0.03166700     -0.04282800
C         0.95063300      1.18688500     -0.15082000
C        -0.42602100      1.19328200     -0.36853700
C         3.10467400     -0.09924300      0.18464200
O         3.68407600      1.11879500      0.27031700
O         3.74267500     -1.12183400      0.28693400
H        -5.33294400     -0.13454600      1.33227400
H        -5.16016600      0.81827400      0.01953900
H        -3.09902100     -0.89130300      1.24121200
H        -3.05210100      0.87614300      1.26853400
H        -2.94171000      0.89744400     -1.24424500
H        -2.97191400     -0.87348700     -1.24346100
H        -0.99548900     -2.16119800     -0.46196100
H         1.47559700     -2.17495900     -0.07131400
H         1.50288600      2.12325300     -0.06601700
H        -0.95421900      2.14664100     -0.45597700
H         4.63105400      0.95831600      0.41721100
