44
O=P(O)(O)c1ccc(N2c3ccccc3Sc3ccccc32)c2ccccc12
O        -5.43627100     -0.93562100      0.10888600
P        -4.61787100     -0.02060300     -0.73407000
O        -4.89443700     -0.21620700     -2.33026400
O        -4.89602300      1.56111400     -0.50961500
C        -2.82038100     -0.07751600     -0.56848800
C        -2.04077400     -0.02460900     -1.71112600
C        -0.63164300     -0.00538000     -1.62472900
C        -0.00680100     -0.02919800     -0.39755600
N         1.42413200      0.00588200     -0.35000700
C         2.11440800     -1.22216100     -0.22055200
C         1.43404100     -2.40575300      0.11405400
C         2.11781800     -3.61626500      0.24686200
C         3.50038300     -3.67142100      0.07440600
C         4.19013500     -2.50226300     -0.25446700
C         3.50828800     -1.29459600     -0.42694700
S         4.40629800      0.10550800     -1.04693600
C         3.43732700      1.41597000     -0.34341700
C         4.05521000      2.64474800     -0.09564300
C         3.30545200      3.75369600      0.30308000
C         1.92785700      3.61576900      0.46886000
C         1.30822500      2.38156400      0.26065100
C         2.04948800      1.25816200     -0.14455200
C        -0.77112700     -0.09053200      0.80951000
C        -0.14422900     -0.11864200      2.08482600
C        -0.89766800     -0.18984400      3.23561100
C        -2.30990400     -0.24764900      3.15864300
C        -2.94922900     -0.22271100      1.93761800
C        -2.20400300     -0.12850900      0.72722700
H        -5.36342800     -1.05214000     -2.47361300
H        -5.83498000      1.72491200     -0.32852700
H        -2.52113300      0.00802300     -2.68948400
H        -0.02034000      0.03700300     -2.52738800
H         0.35661500     -2.38365600      0.26672200
H         1.55579400     -4.51842100      0.49835300
H         4.04119200     -4.61290200      0.18906300
H         5.27234200     -2.51997400     -0.40294600
H         5.13479600      2.72828300     -0.24070700
H         3.79628200      4.71343100      0.47630600
H         1.31952700      4.47023400      0.77350100
H         0.23339900      2.29401200      0.40845300
H         0.94400700     -0.08475200      2.13622800
H        -0.40465000     -0.21007000      4.21007000
H        -2.89930700     -0.32201700      4.07536900
H        -4.03514500     -0.30368300      1.88538800
