20
NCc1ccc(C(=O)O)cc1
N        -3.88011600      0.70362000      0.28847700
C        -3.15601200     -0.46034300     -0.19910200
C        -1.65365700     -0.28513600     -0.10941600
C        -1.07387100      0.99199600     -0.15047200
C         0.30972200      1.14252700     -0.10445300
C         1.14288600      0.01744700     -0.01787200
C         0.57000800     -1.26282300      0.02662900
C        -0.81512900     -1.40619100     -0.01468000
C         2.61332000      0.23045800      0.02868400
O         3.31383200     -0.92295900      0.11262400
O         3.15852300      1.30984400     -0.00380000
H        -4.87755700      0.61168600      0.10393300
H        -3.77052000      0.79600800      1.29882500
H        -3.41991700     -0.59665800     -1.26436300
H        -3.42400600     -1.41700800      0.29803600
H        -1.73262800      1.85936800     -0.21334400
H         0.77191400      2.13086500     -0.13549400
H         1.21608700     -2.13805800      0.10037500
H        -1.25618700     -2.40601700      0.03064800
H         4.25117800     -0.66821500      0.13555300
