83
O=P(O)(O)CCCCn1c2ccc(-c3c4ccccc4cc4ccccc34)cc2c2cc(-c3c4ccccc4cc4ccccc34)ccc21
C         0.04242900      3.15322200     -0.43844100
C        -1.30926900      3.15676300     -0.85109800
C        -2.00780100      1.97792500     -1.11047600
C        -1.32714100      0.76571600     -0.95329200
C         0.03249500      0.73388000     -0.53166700
C         0.70886700      1.93222200     -0.28004800
N        -1.77246300     -0.53538800     -1.15144800
C        -0.74295800     -1.41331300     -0.83563600
C         0.40741600     -0.66527500     -0.45558700
C        -0.72339600     -2.81218400     -0.85242800
C         0.46331200     -3.45232400     -0.49640800
C         1.62141300     -2.73350800     -0.12276300
C         1.58480500     -1.33406000     -0.10445500
C        -5.44771600     -1.49374800     -0.61923500
C        -6.34590700     -1.66798900      0.60913300
P        -8.04556000     -2.15088200      0.24481900
O        -8.99844900     -2.35165200      1.36887700
O        -8.50041600     -0.98891100     -0.80661800
O        -7.82907700     -3.48328800     -0.67334600
C        -3.12794100     -0.91652300     -1.47959900
C        -4.02210000     -1.08988300     -0.24864000
H        -1.81655500      4.11683200     -0.96828600
H        -3.05222700      2.01150300     -1.42523100
H         1.75216200      1.92343300      0.04311000
H        -1.60462100     -3.39388700     -1.12826600
H         0.50501900     -4.54368100     -0.49943500
H         2.47609100     -0.77340400      0.18579200
H        -5.43471200     -2.43662200     -1.19086800
H        -5.89254900     -0.73524200     -1.28457900
H        -6.41080100     -0.73413500      1.19167600
H        -5.94793300     -2.44066800      1.28758600
H        -9.44868300     -0.81003300     -0.71635100
H        -8.53345100     -4.12478200     -0.49544600
H        -3.54999900     -0.15303600     -2.15229500
H        -3.09444900     -1.85197300     -2.06046500
H        -3.57281500     -1.84869100      0.41464800
H        -4.03111400     -0.14524600      0.32163600
C         2.86625900     -3.46408700      0.25449100
C         3.64184600     -4.09839500     -0.74508300
C         3.26733300     -3.52265400      1.61062300
C         4.84195500     -4.81504600     -0.37408300
C         4.47757500     -4.22875400      1.96967600
C         5.22892700     -4.85825300      0.97044200
H         6.14007200     -5.39588100      1.24662800
C         0.74771000      4.44088900     -0.17322100
C         0.44629100      5.18247700      0.99382800
C         1.71556000      4.91755500     -1.08934600
C         1.12515200      6.43499900      1.24252900
C         2.40014300      6.16379200     -0.82402600
C         2.08455900      6.88981500      0.33036100
H         2.60026300      7.83420100      0.52453100
C         4.87401100     -4.27299700      3.34420800
H         5.79381700     -4.80486500      3.60097500
C         2.50609000     -2.91747000      2.66367000
H         1.58139700     -2.39908400      2.40960200
C         5.61151200     -5.45654700     -1.39613300
H         6.51354000     -5.99919700     -1.10160500
C         3.29373900     -4.04568700     -2.13446500
H         2.40355500     -3.48996300     -2.42992300
C         0.80425000      7.17592300      2.42421800
H         1.32091200      8.12347100      2.59766400
C        -0.50546300      4.73019400      1.96540300
H        -1.00797400      3.77682900      1.80062000
C         3.38149500      6.62903200     -1.75619300
H         3.89564300      7.56930500     -1.54077900
C         2.04110200      4.21657600     -2.29649300
H         1.51851900      3.28593400     -2.51823400
C        -0.78224900      5.46937200      3.08819300
H        -1.51011000      5.10228300      3.81581100
C        -0.12378000      6.71218600      3.32072400
H        -0.35794200      7.28821600      4.21912700
C         3.67150300      5.91880000     -2.89254500
H         4.42324800      6.28617000     -3.59517500
C         2.98673000      4.69883900     -3.16637900
H         3.21678600      4.14658000     -4.08067900
C         2.91956300     -2.98563200      3.97054200
H         2.32135200     -2.51676100      4.75551500
C         4.12222900     -3.66759100      4.31791400
H         4.43734400     -3.70942200      5.36324000
C         4.06118500     -4.67179500     -3.08456800
H         3.77650900     -4.61511600     -4.13798400
C         5.23365100     -5.39231400     -2.71260700
H         5.83156000     -5.88621500     -3.48224800
