33
O=C(O)CCc1c2ccccc2cc2ccccc12
O         4.29149800      0.43048200      0.29863200
C         3.79351100     -0.66172400     -0.32767500
C         2.32101100     -0.50693600     -0.61735900
C         1.48090000     -0.36352200      0.66998600
C         0.02808900     -0.07438500      0.37694900
C        -0.39559700      1.26621400      0.20000000
C         0.50186200      2.38269900      0.28497800
C         0.06177900      3.67106900      0.10747600
C        -1.31003600      3.94145300     -0.16453300
C        -2.20341900      2.90622700     -0.25951500
C        -1.78427000      1.54846100     -0.09066900
C        -2.69191200      0.49012000     -0.20746800
C        -2.28532300     -0.84065800     -0.06531300
C        -3.21567200     -1.91870200     -0.20873800
C        -2.81347400     -3.22344600     -0.08970800
C        -1.44720900     -3.52205000      0.18193300
C        -0.52635700     -2.51574800      0.33446400
C        -0.89814500     -1.13456200      0.22470900
O         4.47415000     -1.62117300     -0.58854600
H         5.23284200      0.25207800      0.46593400
H         2.18303900      0.39326100     -1.23744500
H         1.99666600     -1.37785600     -1.20162600
H         1.58141500     -1.28064500      1.26636000
H         1.91057300      0.43638800      1.28575300
H         1.55955900      2.21076800      0.48460800
H         0.77055900      4.49981200      0.17526500
H        -1.64272600      4.97328100     -0.29892100
H        -3.25828200      3.09884400     -0.47143000
H        -3.74092500      0.70782400     -0.42524800
H        -4.25979900     -1.67493700     -0.42117500
H        -3.53341700     -4.03700100     -0.20461400
H        -1.13090600     -4.56419800      0.26873100
H         0.51179100     -2.77915700      0.53601600
