42
O=P(O)(O)CCCn1c2ccccc2c2cc3ccccc3cc21
C        -1.23509500      4.67855800     -0.56053800
C         0.04716300      4.56400600      0.00246000
C         0.52014200      3.34580500      0.49846400
C        -0.32804500      2.23714900      0.42126900
C        -1.62541100      2.33537400     -0.15453400
C        -2.07537900      3.56592200     -0.64268800
N        -0.11300500      0.92953000      0.84751500
C        -1.22448000      0.15696100      0.52773000
C        -2.21039800      1.00549300     -0.09098400
C        -1.44618000     -1.19213900      0.72434300
C        -2.68806500     -1.74692400      0.31733000
C        -3.68920600     -0.90575600     -0.29412600
C        -3.42165000      0.47363400     -0.48880000
C         3.38750900     -0.61928000      0.92512700
P         4.58765500     -1.22566900     -0.27820600
O         5.88150300     -1.77530100      0.20700900
O         3.69353600     -2.29469700     -1.12475700
O         4.74811800      0.06514500     -1.26194800
C         1.12130700      0.41983100      1.39484200
C         2.09153200     -0.07714100      0.31849800
H         0.69259200      5.44427400      0.05203300
H         1.52164000      3.27032500      0.92527900
H        -3.07060100      3.65341500     -1.08496600
H        -0.69346800     -1.83968500      1.17764400
H        -4.18133600      1.10382600     -0.95797100
H         3.18986400     -1.46219600      1.60843500
H         3.91067100      0.15313800      1.51351400
H         4.24815500     -3.02817900     -1.43075500
H         5.64989600      0.10735800     -1.61445700
H         1.59094000      1.21509500      1.99569600
H         0.87946600     -0.39452000      2.09695200
H         1.60238200     -0.86365800     -0.27656400
H         2.32155000      0.74808200     -0.37307400
H        -1.57335200      5.64506200     -0.93990800
C        -4.92537200     -1.49123300     -0.69217400
C        -2.98133100     -3.12982600      0.49402600
C        -5.17377500     -2.83230200     -0.50370000
C        -4.18877900     -3.65979600      0.09639700
H        -5.67973800     -0.84905300     -1.15469600
H        -6.12782200     -3.26386700     -0.81516000
H        -4.39275200     -4.72334900      0.24241500
H        -2.22405300     -3.76892900      0.95598800
