44
O=P(O)(O)c1ccc2cc(N3c4ccccc4Sc4ccccc43)ccc2c1
O        -6.83680800     -0.00342000      1.41863900
P        -6.07803700     -0.01209600      0.14095000
O        -6.30506300     -1.25046200     -0.88010000
O        -6.44223400      1.24631300     -0.83710300
C        -4.28777100     -0.02752600      0.31840000
C        -3.75136200     -0.02407300      1.63428600
C        -2.38708500     -0.01740300      1.82403100
C        -1.49724300     -0.01388900      0.71598500
C        -0.08541500     -0.00750200      0.88115300
C         0.75311300     -0.00506400     -0.21089000
N         2.17106700      0.00098200     -0.00914900
C         2.84322200      1.24189500     -0.10964400
C         2.18825900      2.39078600     -0.58611100
C         2.85736400      3.61339000     -0.68314800
C         4.20227700      3.71519000     -0.33042000
C         4.86710600      2.58093900      0.14177900
C         4.19513500      1.36354100      0.27731700
S         5.02869600      0.01429300      1.07430200
C         4.20546600     -1.34493200      0.28341700
C         4.88675200     -2.55772600      0.15323700
C         4.23053900     -3.69901500     -0.31400600
C         2.88488500     -3.60905400     -0.66715300
C         2.20648000     -2.39118000     -0.57548700
C         2.85275300     -1.23536600     -0.10405300
C         0.21639300     -0.00905800     -1.52879100
C        -1.14545900     -0.01507400     -1.72143400
C        -2.03919000     -0.01747700     -0.61277900
C        -3.44714700     -0.02324200     -0.78102100
H        -7.24006600     -1.35650500     -1.11480800
H        -6.80486100      1.97678800     -0.31420600
H        -4.44133000     -0.02968100      2.48018200
H        -1.97074400     -0.01644500      2.83426500
H         0.34608100     -0.00492700      1.88385300
H         1.14002600      2.33380200     -0.87460000
H         2.31438000      4.48840600     -1.04744800
H         4.73238900      4.66589800     -0.41490500
H         5.91884900      2.63531300      0.43223600
H         5.93885900     -2.60285000      0.44396100
H         4.76782100     -4.64605500     -0.39425200
H         2.34847700     -4.48976700     -1.02738600
H         1.15776800     -2.34364700     -0.86396300
H         0.90415500     -0.00751000     -2.37632400
H        -1.56018300     -0.01858400     -2.73237800
H        -3.85925900     -0.02675400     -1.79274000
