33
O=P(O)(O)CCn1c2ccc(Br)cc2c2cc(Br)ccc21
C        -1.72130500     -3.03443500     -0.04803500
C        -0.39466600     -3.43238600     -0.29519600
C         0.60486700     -2.48093600     -0.49809400
C         0.24717300     -1.12923700     -0.45099700
C        -1.09323500     -0.72573900     -0.19116600
C        -2.08756000     -1.69114300      0.00805000
N         1.03513300      0.00072100     -0.62761700
C         0.24589000      1.12979500     -0.45099400
C        -1.09406100      0.72477100     -0.19117500
C         0.60205200      2.48190300     -0.49802700
C        -0.39856600      3.43220700     -0.29511700
C        -1.72476000      3.03274300     -0.04798900
C        -2.08948600      1.68903800      0.00806500
C         2.46976200      0.00152100     -0.78447800
C         3.20525500      0.00160000      0.56451800
P         5.00306200      0.00235600      0.41548300
O         5.23605700     -1.29030200     -0.55254300
O         5.23438300      1.29632600     -0.55113300
O         5.84159000      0.00190100      1.64130400
H        -0.15002100     -4.49480600     -0.32573400
H         1.63285700     -2.79610000     -0.68494000
H        -3.12125900     -1.40437200      0.20543200
H         1.62968800      2.79824900     -0.68481500
H        -0.15513200      4.49490600     -0.32561600
H        -3.12285700      1.40108700      0.20544600
H         2.76408400     -0.87969500     -1.37153400
H         2.76312400      0.88333900     -1.37110800
H         2.93136000      0.88920200      1.15609200
H         2.93216000     -0.88644600      1.15580300
H         6.07764000     -1.72479300     -0.34598300
H         6.07740800      1.72928000     -0.34720800
Br       -3.05499100      4.37462300      0.22313900
Br       -3.05001800     -4.37781900      0.22309100
