34
O=P(O)(O)CCN1c2ccc(Br)cc2Sc2cc(Br)ccc21
C        -3.38532300     -1.74242000     -0.08597100
C        -3.48439200     -0.35449800     -0.07529300
C        -2.34863600      0.42094500      0.17299200
C        -1.09714400     -0.16639400      0.44234300
C        -1.03674800     -1.57843300      0.46418700
C        -2.15913000     -2.35708500      0.17637200
N         0.05006800      0.61631900      0.69575200
C         1.35107100      0.14066200      0.43239500
C         1.64347500     -1.24228500      0.45920800
S         0.43037600     -2.41292300      1.00701300
C         2.41616200      1.01537900      0.14935000
C         3.70838000      0.54821600     -0.10282000
C         3.95730900     -0.82099300     -0.10452300
C         2.92289400     -1.71887500      0.16737000
C        -0.14149200      2.04850800      0.85789700
C        -0.26522600      2.82558600     -0.47107000
P        -1.00219800      4.45943000     -0.28962500
O        -2.42890900      4.11566900      0.43954900
O        -0.07801100      5.06622500      0.90419000
O        -1.15669400      5.32608700     -1.48531400
H        -4.44017800      0.13319400     -0.26941600
H        -2.47069700      1.50178700      0.16426900
H        -2.07485900     -3.44463600      0.18250500
H         2.25829300      2.09092400      0.12667400
H         4.51092000      1.25709500     -0.30877700
H         3.11097700     -2.79333000      0.17692000
H        -1.04344900      2.19830700      1.46474000
H         0.68980800      2.45414000      1.44787900
H         0.70827300      2.96207100     -0.96334700
H        -0.90174600      2.28355400     -1.18605500
H        -3.14548100      4.60634500      0.00876700
H        -0.13485400      6.03317200      0.94568400
Br        5.70632900     -1.47684200     -0.47126700
Br       -4.91915200     -2.81045200     -0.44844700
