34
O=P(O)(O)CCN1c2ccc(Br)cc2Oc2cc(Br)ccc21
C         3.80108600     -1.05077100     -0.00095000
C         3.70487300      0.33057800     -0.12848400
C         2.44909900      0.92052300     -0.32071600
C         1.28406200      0.14619800     -0.40365300
C         1.41673400     -1.25290000     -0.26419400
C         2.65327100     -1.85025600     -0.06161200
N         0.00841200      0.68320900     -0.62838700
C        -1.11329900     -0.13052400     -0.40891500
C        -0.92535300     -1.52294400     -0.26918500
C        -2.42397400      0.36162100     -0.32914600
C        -3.51308300     -0.49941500     -0.14175000
C        -3.29405300     -1.86674900     -0.01582400
C        -1.99477200     -2.38560700     -0.07208900
C        -0.16776900      2.10805100     -0.79708300
C        -0.29099400      2.86256200      0.53978900
P        -0.81623600      4.57566300      0.35461500
O         0.27601400      5.10544900     -0.73177400
O        -2.19958600      4.40005800     -0.50236800
O        -0.97482500      5.43385900      1.55612900
H         4.59691200      0.95501400     -0.07543300
H         2.39536900      2.00463300     -0.40970500
H         2.70163900     -2.93437800      0.03748100
H        -2.61837600      1.43013400     -0.41366200
H        -4.52375800     -0.09384800     -0.09133000
H        -1.79667400     -3.45263000      0.02629200
H         0.67167200      2.50988500     -1.37820600
H        -1.06420500      2.27635000     -1.40790900
H        -1.03909300      2.38019200      1.18781900
H         0.66236500      2.86196200      1.08984200
H         0.37339700      6.06924200     -0.69304900
H        -2.87632600      5.00950700     -0.17023500
Br       -4.76160000     -3.05173300      0.24054000
Br        5.49783200     -1.87191500      0.26329100
O         0.32572400     -2.08036600     -0.34869200
