34
O=P(O)(O)CCN1c2ccc(Br)cc2[Se]c2cc(Br)ccc21
C        -3.42463000     -1.59529200     -0.23165600
C        -3.50842300     -0.20619000     -0.21309700
C        -2.36947600      0.55520600      0.05742400
C        -1.12382100     -0.04348300      0.33994200
C        -1.08614500     -1.45556900      0.36497600
C        -2.21034100     -2.22216400      0.05298300
N         0.02068900      0.74237000      0.61226800
C         1.33638500      0.31113600      0.32976300
C         1.70348300     -1.05293200      0.36450000
C         2.35755800      1.23374900      0.02721900
C         3.66630200      0.83050400     -0.24357100
C         3.98360400     -0.52479000     -0.24407000
C         2.99915800     -1.46889900      0.05243100
C        -0.19591400      2.16478000      0.83820000
C        -0.34321000      3.00861500     -0.44880900
P        -1.15638500      4.59581500     -0.19041300
O        -2.58052800      4.15715100      0.49170700
O        -0.28066300      5.17215300      1.05332400
O        -1.32700100      5.51805700     -1.34151000
H        -4.45561500      0.29353900     -0.41867100
H        -2.48684500      1.63591900      0.05714800
H        -2.14254200     -3.31111200      0.05713400
H         2.15043900      2.30012000      0.00011500
H         4.42859600      1.57780900     -0.46615400
H         3.24469700     -2.53191800      0.06413400
H        -1.09662700      2.26803500      1.45657800
H         0.63201200      2.55698500      1.44200600
H         0.62564100      3.22290800     -0.92145900
H        -0.94273700      2.47929900     -1.20374800
H        -3.30989200      4.62888700      0.06120900
H        -0.39171900      6.12944400      1.15905400
Br        5.75619100     -1.09543000     -0.63893700
Br       -4.96262100     -2.64475900     -0.62920700
Se        0.46967500     -2.36658900      0.99301300
