60
O=P(O)(O)CCCCN1c2ccc(Br)cc2C2(c3ccccc3-c3ccccc32)c2cc(Br)ccc21
O        -8.68233000     -0.00018300     -1.21505300
P        -7.59609200      0.00002800     -0.19936900
O        -7.62701400      1.29324900      0.79570500
O        -7.62695300     -1.29282100      0.79618900
C        -5.87820500     -0.00003900     -0.75115900
C        -4.83916800      0.00008500      0.37393100
C        -3.40537200      0.00003700     -0.15281800
C        -2.37876600      0.00006600      0.98653700
N        -0.98750700      0.00003800      0.55867000
C        -0.36264400     -1.21561400      0.24364500
C        -1.08855900     -2.42415100      0.19125600
C        -0.46852900     -3.63116700     -0.12273300
C         0.89684900     -3.64814400     -0.40329100
C         1.63364700     -2.46682000     -0.35685800
C         1.02271000     -1.25345500     -0.02887900
C         1.02275600      1.25345600     -0.02888300
C         1.63373900      2.46679900     -0.35685700
C         0.89698200      3.64814900     -0.40330000
C        -0.46840000      3.63121900     -0.12276400
C        -1.08847600      2.42422600      0.19122200
C        -0.36260200      1.21566500      0.24362900
C         1.87238200     -0.00001500      0.15743200
C         3.11554300     -0.00003900     -0.72987700
C         4.28967200     -0.00006400      0.04854100
C         3.91131000     -0.00005600      1.46964000
C         2.50509300     -0.00002700      1.56102800
C         4.69204500     -0.00007300      2.62867500
C         4.05203600     -0.00006000      3.87261600
C         2.65353600     -0.00003000      3.95726700
C         1.86880600     -0.00001400      2.79633700
C         3.17997500     -0.00004000     -2.11829200
C         4.43714600     -0.00006600     -2.73606400
C         5.60804100     -0.00009000     -1.96572400
C         5.54435500     -0.00008900     -0.56874300
H        -8.49383500      1.72472100      0.75295100
H        -8.49378500     -1.72429200      0.75367200
H        -5.76515400     -0.88538200     -1.39853600
H        -5.76515300      0.88516200     -1.39872900
H        -5.00406600      0.88208600      1.01503000
H        -5.00406000     -0.88178500      1.01521300
H        -3.24009400     -0.87895800     -0.79689900
H        -3.24006000      0.87896800     -0.79697800
H        -2.53751400      0.87494600      1.63365600
H        -2.53753000     -0.87477400      1.63370700
H        -2.15904900     -2.43755200      0.38275900
H        -1.05305700     -4.55123700     -0.15922700
H         2.70403800     -2.48643400     -0.55896600
H         2.70413300      2.48637500     -0.55895200
H        -1.05289700      4.55130900     -0.15927000
H        -2.15896900      2.43766200      0.38270900
H         5.78285300     -0.00009600      2.56726200
H         4.64854200     -0.00007300      4.78794900
H         2.17089400     -0.00002000      4.93739800
H         0.77860200      0.00001000      2.86076900
H         2.26488000     -0.00002100     -2.71478600
H         4.50607000     -0.00006700     -3.82625800
H         6.58103100     -0.00011000     -2.46264600
H         6.45973500     -0.00010800      0.02748000
Br        1.76094800     -5.28837700     -0.84439600
Br        1.76114800      5.28835200     -0.84438300
