47
CSc1cccc2c1c1c(SC)cccc1n2CCCCP(=O)(O)O
C         2.72215400      3.04547600      0.41010200
C         1.40113700      3.46150100      0.20818100
C         0.42979800      2.56296900     -0.21917000
C         0.81788300      1.23057400     -0.39052300
C         2.13855200      0.74549700     -0.11791200
C         3.12328900      1.71393400      0.21536300
N         0.03703400      0.19468200     -0.86910000
C         0.77709300     -0.97327200     -0.86018500
C         2.09532200     -0.69971000     -0.36919400
C         0.33352800     -2.24815400     -1.22498900
C         1.23234900     -3.30028600     -1.09049500
C         2.51028000     -3.08765000     -0.56073600
C         2.94847400     -1.81603900     -0.15713300
C        -1.37003600      0.28852200     -1.18846700
C        -2.28072300      0.03993200      0.01681300
P        -6.44281700     -0.02519200      0.49924200
O        -6.56829300      1.45246500     -0.18230200
O        -6.59263100     -1.07202200     -0.74432100
O        -7.41692800     -0.26197200      1.59807300
H         3.46123300      3.78529800      0.71510000
H         1.13927900      4.50968400      0.37091200
H        -0.59206500      2.88777600     -0.41700900
H        -0.68056200     -2.41486700     -1.58910500
H         0.93430300     -4.31113500     -1.37879900
H         3.17440500     -3.94295900     -0.44368700
H        -1.56406300      1.28509100     -1.61499300
H        -1.59284400     -0.43304500     -1.98957500
H        -2.05547300     -0.95646700      0.43361400
H        -2.03487200      0.76988900      0.80686200
H        -7.42620800      1.84636000      0.03705600
H        -7.45033300     -1.52076100     -0.69673100
C        -3.76127800      0.13554900     -0.34581500
H        -4.00085700     -0.59020000     -1.14073600
H        -3.98362300      1.13278000     -0.76062000
C        -4.67699400     -0.12026300      0.85500300
H        -4.50556100     -1.12290800      1.28059000
H        -4.48769400      0.60570300      1.66299700
S         4.86123400      1.32194700      0.29083500
S         4.50659900     -1.67249700      0.69547100
C         5.60538300      2.83002200     -0.41852400
H         5.60988600      3.67270100      0.28750700
H         6.64703700      2.55957600     -0.64475600
H         5.09407500      3.12125500     -1.34704900
C         4.56164300     -3.23878900      1.62996800
H         5.36362200     -3.10505000      2.37037300
H         3.61058500     -3.42016700      2.15061600
H         4.81312000     -4.10130000      0.99629800
