39
O=P(O)(O)CCCCn1c2cccc3ssc4cccc1c4c32
C         3.30433900      2.96632700      0.13839600
C         2.00421600      3.40655600     -0.19388400
C         0.96621700      2.53094700     -0.53053100
C         1.25129500      1.15756400     -0.50563900
C         2.53964300      0.71388400     -0.12890400
C         3.58344200      1.59760200      0.14996600
N         0.49020900      0.03847900     -0.84890700
C         1.26085700     -1.11019700     -0.65926700
C         2.53944400     -0.71179800     -0.20540000
C         0.96343200     -2.47434600     -0.79528500
C         1.97124300     -3.38603500     -0.46267900
C         3.23695200     -2.99024700      0.02286300
C         3.51854000     -1.63051200      0.17615900
C        -0.91461400      0.05812400     -1.19490300
C        -1.83835100     -0.00056700      0.02483000
P        -6.00527300     -0.00680300      0.46412400
O        -6.12568600      1.33514200     -0.45704600
O        -6.13252900     -1.24782200     -0.58820500
O        -6.99275500     -0.06015100      1.57482300
H         4.08680000      3.69463600      0.35957300
H         1.80623000      4.48114900     -0.20088700
H        -0.01678700      2.91520600     -0.80707800
H        -0.01320300     -2.82502600     -1.13242600
H         1.76604300     -4.45433800     -0.56582600
H         3.97444800     -3.74521200      0.30166700
H        -1.11472000      0.96994000     -1.78054700
H        -1.11643200     -0.79054900     -1.86741200
H        -1.61300300     -0.91489700      0.59996500
H        -1.60587000      0.84918900      0.68929500
H        -6.98326300      1.76217900     -0.31008900
H        -6.99354200     -1.68135200     -0.48768400
C        -3.31512300      0.02519900     -0.36478600
H        -3.54332900     -0.82382700     -1.03034900
H        -3.53600500      0.93834800     -0.94211100
C        -4.24347400     -0.03208800      0.85227900
H        -4.07278100     -0.94860400      1.44087400
H        -4.06654400      0.81992300      1.52928500
S         5.23926600      0.92848300      0.23107900
S         4.93129700     -1.01310100      1.08194500
