48
O=P(O)(O)CCCCn1c2ccccc2c2c3oc4ccccc4c3ccc21
C        -3.17475100     -1.33957900     -0.33637400
C        -2.02968500     -2.02575300     -0.78696600
C        -0.83118400     -1.33740000     -0.96542200
C        -0.79305200      0.04381700     -0.69123500
C        -1.92836000      0.76939700     -0.22662500
C        -3.10514100      0.04183000     -0.06443400
N         0.27277300      0.92781900     -0.80528600
C        -0.13829400      2.19179000     -0.39683300
C        -1.51603800      2.13989300     -0.03722400
C         0.58975500      3.38415300     -0.31349100
C        -0.08261700      4.52672100      0.12384600
C        -1.44538100      4.48965900      0.47479900
C        -2.16927800      3.30033600      0.39788300
C         3.89234600     -0.24810300     -0.33174800
C         4.73290700     -0.68041800      0.87349900
P         6.43337400     -1.14250500      0.48729800
O         7.33434900     -1.57736600      1.58780700
O         6.21796200     -2.27364200     -0.66960800
O         6.96521000      0.17702900     -0.31282300
C         1.62859000      0.56244500     -1.15096500
C         2.46480600      0.13120700      0.05705000
H        -2.07830700     -3.09674800     -0.99425000
H         0.05962600     -1.86489700     -1.30881800
H         1.64804800      3.42708800     -0.57673300
H         0.46428900      5.46981700      0.19678300
H         4.38641400      0.60443700     -0.82672000
H         3.87600300     -1.06686700     -1.07020600
H         4.28614900     -1.55248000      1.37905300
H         4.79780200      0.12485700      1.62384200
H         6.91275500     -2.94656900     -0.60829100
H         7.90675000      0.31760100     -0.13102100
H         1.59143000     -0.24675900     -1.89738800
H         2.10059800      1.42124200     -1.65378300
H         2.47710300      0.95255000      0.79372100
H         1.96636400     -0.72070900      0.55031800
C        -4.54853600     -1.71377000     -0.04242600
C        -5.18200100     -0.52323500      0.38012300
H        -3.22541300      3.26109400      0.67108600
H        -1.93767200      5.40379500      0.81353800
O        -4.30524400      0.53600400      0.36537100
C        -6.51732900     -0.46165200      0.75541100
C        -5.29572300     -2.89785100     -0.08895800
H        -4.83561400     -3.83462100     -0.41114700
C        -6.64099200     -2.85666500      0.28483400
C        -7.24351200     -1.65654500      0.70098300
H        -6.96906500      0.47824800      1.07583900
H        -8.29761700     -1.65461000      0.98740700
H        -7.23706000     -3.77148900      0.25397600
