48
O=P(O)(O)CCCCn1c2ccccc2c2c3sc4ccccc4c3ccc21
C        -3.04365700     -1.19607200     -0.31727300
C        -1.90679800     -1.90375800     -0.76419900
C        -0.68805300     -1.26176900     -0.95435400
C        -0.61156500      0.11795500     -0.69312800
C        -1.73114700      0.86624600     -0.23382400
C        -2.94594300      0.19115200     -0.05376300
N         0.47617500      0.97227100     -0.81669400
C         0.09607300      2.24805600     -0.41804900
C        -1.28286000      2.22943300     -0.05652600
C         0.85377300      3.42208700     -0.34580600
C         0.21174300      4.58508100      0.08301800
C        -1.15050500      4.58401100      0.43604600
C        -1.90339700      3.41198900      0.36972800
C         4.06597500     -0.28867000     -0.33516500
C         4.89780700     -0.72818700      0.87352800
P         6.58506400     -1.23812800      0.48935600
O         7.47695300     -1.68357200      1.59300800
O         6.33789100     -2.37619900     -0.65427500
O         7.14885800      0.05820000     -0.32663300
C         1.82198400      0.56952100     -1.16000700
C         2.64922300      0.13101900      0.05156800
H        -1.98575200     -2.97494700     -0.96166900
H         0.18376500     -1.82182600     -1.29503300
H         1.91226000      3.43558500     -0.61132700
H         0.78193000      5.51487900      0.14734200
H         4.58045300      0.54534600     -0.84079600
H         4.02753000     -1.11519300     -1.06408100
H         4.43010800     -1.58262500      1.39011600
H         4.98490400      0.08388100      1.61422400
H         7.01556500     -3.06584300     -0.58738700
H         8.09403700      0.17675600     -0.14803600
H         1.76332500     -0.24683900     -1.89718100
H         2.31444500      1.41047700     -1.67330000
H         2.68361500      0.95997400      0.77895200
H         2.13030400     -0.70237800      0.55526600
C        -4.38433400     -1.70008400     -0.06481500
C        -5.26191600     -0.68076300      0.38221200
H        -2.95937200      3.41435100      0.64758600
H        -1.62064600      5.51206200      0.76811700
C        -6.60081300     -0.94488600      0.68430000
C        -4.88501800     -3.00505600     -0.20379800
H        -4.22743200     -3.80706600     -0.54704700
C        -6.21846600     -3.27345900      0.09606400
C        -7.07276300     -2.24917400      0.53796300
H        -7.26275800     -0.14700600      1.02747100
H        -8.11646900     -2.47361900      0.76958300
H        -6.60416000     -4.28955900     -0.01327900
S        -4.46253200      0.88775900      0.49611700
