49
O=P(O)(O)c1ccc(-n2c3ccc4ccccc4c3c3c4ccccc4ccc32)cc1
C        -2.68254500     -3.10729000      0.23228400
C        -1.30739500     -3.42092900      0.46307400
C        -0.32740900     -2.46336200      0.37113200
C        -0.72465700     -1.12948600      0.12359100
C        -2.07703800     -0.72375200      0.03742200
C        -3.08465000     -1.75077800     -0.03350200
N         0.09879300     -0.01602100     -0.00464700
C        -0.70505000      1.11173600     -0.13033800
C        -2.06422300      0.73015200     -0.03986400
C        -0.28524800      2.43848900     -0.37873100
C        -1.24822000      3.41365000     -0.46669200
C        -2.62789000      3.12438000     -0.23150100
C        -3.05309500      1.77491200      0.03463200
C         1.51296100     -0.02921900     -0.00930700
C         4.31117300     -0.05559200     -0.01257200
P         6.10679800     -0.09841300     -0.07751700
O         6.67962500     -1.01956900     -1.09303400
O         6.60175700      1.44931800     -0.25268100
O         6.46895000     -0.35008600      1.48177000
C         3.59894400     -0.87700300     -0.89658000
C         2.20485200     -0.85891900     -0.90183300
C         2.22495500      0.78867900      0.88250800
C         3.61705000      0.78200200      0.87427600
H        -1.03907500     -4.45860400      0.67475700
H         0.72521400     -2.71631500      0.50110600
H         0.77127700      2.67255100     -0.51247600
H        -0.96233200      4.44654800     -0.67886200
H         6.89851900      1.60043700     -1.16246400
H         7.42667100     -0.36094000      1.63401100
H         4.15103800     -1.51943000     -1.58561000
H         1.64416100     -1.47834700     -1.60329300
H         1.67684000      1.41602900      1.58688400
H         4.16707300      1.41735800      1.57129500
C        -3.58297600      4.17400300     -0.19912200
C        -4.39715000      1.58216500      0.44921300
C        -4.42615200     -1.53459900     -0.44467800
C        -3.65606800     -4.13990100      0.20339000
C        -4.89832800      3.93750200      0.14478900
H        -5.61878300      4.75811700      0.17249400
C        -5.29651900      2.63106800      0.50130300
H        -6.32037800      2.44646400      0.83550100
C        -5.34404900     -2.56752000     -0.49359700
H        -6.36532400     -2.36516100     -0.82542200
C        -4.96800400     -3.88048000     -0.13710800
H        -5.70283900     -4.68831900     -0.16230000
H        -3.33733200     -5.15981200      0.43442900
H        -4.72787900     -0.54379500     -0.77431700
H        -3.24704300      5.18829800     -0.43058100
H        -4.71561400      0.59651100      0.77855700
