37
O=P(O)(O)c1ccc(-n2c3ccccc3c3ccccc32)cc1
C        -4.21331400     -3.00640600      0.16807700
C        -2.86698600     -3.41352800      0.19713800
C        -1.82429100     -2.48749400      0.13927500
C        -2.16064500     -1.13291200      0.04447100
C        -3.51562200     -0.70414200      0.03137300
C        -4.54341600     -1.65415500      0.09059300
N        -1.32955700     -0.00605100     -0.00133300
C        -2.13286800      1.14049200     -0.04531400
C        -3.49798800      0.74494100     -0.02890300
C        -1.76419600      2.48664400     -0.14062900
C        -2.78416000      3.43794700     -0.19556300
C        -4.13986200      3.06368200     -0.16342900
C        -4.50237800      1.71972200     -0.08543300
C         0.08131400     -0.02345800     -0.00683600
C         2.88335400     -0.05645700     -0.01267700
P         4.67737800     -0.09925600     -0.08211800
O         5.24810100     -0.99595800     -1.12078500
O         5.17703800      1.45141300     -0.22076700
O         5.04571500     -0.38692800      1.46995700
C         2.16735800     -0.84659800     -0.92199500
C         0.77368400     -0.82502200     -0.92601500
C         0.79875700      0.76234100      0.91080000
C         2.19046600      0.75256500      0.90140100
H        -2.62847900     -4.47721300      0.27001600
H        -0.78470800     -2.81412700      0.17544300
H        -5.58858900     -1.33632500      0.08101800
H        -0.71701400      2.78778600     -0.17934000
H        -2.52013200      4.49559800     -0.26872500
H         5.46331500      1.62534100     -1.12977800
H         6.00404000     -0.39356600      1.61825700
H         2.71706500     -1.46713900     -1.63269700
H         0.21384500     -1.41814900     -1.65022700
H         0.25506200      1.36566000      1.63891000
H         2.74193400      1.36254300      1.61970300
H        -5.55493500      1.42738100     -0.07336700
H        -5.00450200     -3.75781800      0.21308900
H        -4.91273600      3.83403200     -0.20643700
