45
O=P(O)(O)CCCCn1c2ccccc2c2c3ccccc3ccc21
C        -3.68035900     -2.09892100     -0.11858500
C        -2.43013400     -2.61601900     -0.57858200
C        -1.34788600     -1.80026000     -0.81464600
C        -1.49834600     -0.41173100     -0.59040300
C        -2.70568800      0.15667700     -0.12767500
C        -3.83435200     -0.68766800      0.11487200
N        -0.55163000      0.58434000     -0.77105700
C        -1.10969800      1.79855100     -0.40291600
C        -2.46459700      1.58229000     -0.00346900
C        -0.52288800      3.06917600     -0.39194600
C        -1.30813000      4.14636200      0.01509500
C        -2.64712700      3.96019800      0.40578700
C        -3.22676700      2.69308400      0.39980000
C         3.20089400     -0.08709800     -0.35029100
C         4.11985300     -0.34369800      0.84793600
P         5.85668300     -0.59858200      0.43202600
O         6.83331000     -0.85541500      1.52396800
O         5.76440300     -1.80524600     -0.66311300
O         6.19071600      0.73657200     -0.44546500
C         0.83153900      0.37668200     -1.13903500
C         1.74516100      0.12075700      0.06264700
H        -2.34469100     -3.69312500     -0.74196600
H        -0.40077900     -2.21621400     -1.16180300
H         0.51685000      3.21741400     -0.68882000
H        -0.87517300      5.14927300      0.03263300
H         3.56566000      0.79682800     -0.89943800
H         3.27607300     -0.93709500     -1.04873600
H         3.80474700     -1.23979900      1.40775400
H         4.09584400      0.50032600      1.55693300
H         6.54377000     -2.37704400     -0.59300800
H         7.10904500      1.00881700     -0.29761700
H         0.88265500     -0.46848200     -1.84317900
H         1.17700600      1.26052500     -1.69807900
H         1.66549100      0.97272300      0.75916000
H         1.37572700     -0.76306100      0.61040500
C        -5.09358500     -0.21805400      0.57209900
H        -5.23390100      0.84596800      0.75382100
C        -4.78216000     -2.96267500      0.11578300
C        -5.99335500     -2.47311700      0.56086100
H        -6.83173000     -3.15117900      0.73589800
C        -6.14586200     -1.08682200      0.78961300
H        -4.65280100     -4.03321700     -0.06491400
H        -7.10457400     -0.69793200      1.14137800
H        -4.26478600      2.57833400      0.71068600
H        -3.23977000      4.82172800      0.72110500
