18
N#Cc1ccc(P(=O)(O)O)cc1
C        -2.45538600      0.00088500      0.00170900
C        -1.77140600      1.22844400     -0.03665900
C        -0.37813600      1.24340200     -0.05018800
C         0.33744300      0.03901500     -0.02558100
C        -0.34421500     -1.18711400      0.01340300
C        -1.73516500     -1.20905500      0.02594200
P         2.13789600      0.12592200     -0.01835400
O         2.69970400      1.50038900     -0.04276700
O         2.62805400     -0.76089300      1.26094300
O         2.49284000     -0.87707400     -1.23822900
H        -2.33680600      2.16144100     -0.05690600
H         0.17055500      2.18679100     -0.08254000
H         0.21548100     -2.12405800      0.03181900
H        -2.27532800     -2.15668600      0.05464100
H         2.93063800     -0.18029100      1.97530100
H         3.44914700     -0.96385900     -1.37510000
C        -3.89099300     -0.02105600      0.01712500
N        -5.05139500     -0.03981000      0.03057400
