36
OB(O)c1ccc(-n2c3ccccc3c3ccccc32)cc1
N         0.73989300     -0.00009000      0.00017200
C         1.55577800      1.13285500      0.08013500
C         1.20158200      2.48023900      0.21165500
C         2.23150300      3.41826100      0.29375700
C         3.58370000      3.03054800      0.25251900
C         3.93201100      1.68559300      0.13698600
C         2.91742500      0.72317900      0.05253100
C         1.55586800     -1.13294300     -0.08000000
C         1.20187800     -2.48032300     -0.21213200
C         2.23195300     -3.41815900     -0.29444200
C         3.58408600     -3.03026700     -0.25279100
C         3.93218400     -1.68531300     -0.13660300
C         2.91744100     -0.72308900     -0.05190400
C        -0.67524600     -0.00010800      0.00012400
C        -1.38064200     -0.79858800      0.91229100
C        -2.77425000     -0.80035900      0.89996000
C        -3.50135300     -0.00005900      0.00002700
C        -2.77415900      0.80024200     -0.89983600
C        -1.38055300      0.79843000     -0.91206400
B        -5.06562700     -0.00003700     -0.00003000
O        -5.70865600      0.81380100     -0.89313400
O        -5.70874300     -0.81386000      0.89302500
H         0.15676200      2.78891100      0.25486600
H         1.97903500      4.47651000      0.39526800
H         4.98160300      1.38277800      0.11648600
H         0.15711500     -2.78912300     -0.25573000
H         1.97966200     -4.47640300     -0.39645400
H         4.98172800     -1.38235700     -0.11570400
H        -0.82825900     -1.40289000      1.63373300
H        -3.31638400     -1.42552300      1.61317400
H        -3.31622300      1.42544100     -1.61307300
H        -0.82809100      1.40275200     -1.63343000
H        -6.67199600      0.78848100     -0.86852600
H        -6.67208000     -0.78851600      0.86834500
H         4.36523900     -3.79082400     -0.31781400
H         4.36473100      3.79124200      0.31740400
