48
COc1ccc2c(c1)c1cc(OC)ccc1n2-c1ccc(/C=C(\C#N)C(=O)O)cc1
C         4.80056300     -0.61536600     -0.45328400
C         5.86150000      0.02941900      0.11526500
C         7.22761000     -0.43087600     -0.27898200
C         3.37186500     -0.43501700     -0.30841400
C         2.53142900     -1.28630600     -1.06274800
C         1.14902100     -1.18767200     -1.00138800
C         0.54825800     -0.22882200     -0.16523600
C         1.37157800      0.62137200      0.59870000
C         2.75357300      0.52547300      0.52646200
N        -0.84616900     -0.12000300     -0.09393900
C        -1.58404100      1.07677600     -0.13080000
C        -2.96409900      0.76988100     -0.05210900
C        -3.92749300      1.79039700     -0.09554700
C        -3.49545000      3.11258400     -0.22891800
C        -2.11550200      3.40363500     -0.33361900
C        -1.15462700      2.40080900     -0.29162400
C        -1.75408500     -1.18843300      0.01036600
C        -1.52199500     -2.56344000      0.14668200
C        -2.61898400     -3.40686500      0.27360300
C        -3.94156800     -2.90632800      0.27703800
C        -4.17447000     -1.53261200      0.16976100
C        -3.07237700     -0.67219300      0.04147100
H         2.98604200     -2.02727600     -1.72473400
H         0.52365200     -1.83083000     -1.62042400
H         0.91335000      1.34374700      1.27426300
H         3.35717800      1.19276100      1.13903700
H        -4.98526300      1.53786800     -0.03368800
H        -1.82557400      4.44874800     -0.45348500
H        -0.09921500      2.65253800     -0.39323100
H        -0.51276100     -2.97409400      0.16630000
H        -2.48490200     -4.48467000      0.37896600
H        -5.18226700     -1.11990900      0.19230600
O        -4.32358200      4.18949700     -0.27784200
O        -4.91878800     -3.84367100      0.39823500
C        -5.71114900      3.97945000     -0.18292800
H        -6.18528000      4.96833800     -0.23864500
H        -6.08990900      3.35343900     -1.01170800
H        -5.98968200      3.50169200      0.77430000
C        -6.26083900     -3.42259700      0.41275100
H        -6.87517900     -4.32756000      0.50994100
H        -6.47275300     -2.75279900      1.26631800
H        -6.53731000     -2.89995900     -0.52134700
H         5.10584300     -1.40890200     -1.14288500
O         8.19530900      0.26887500      0.33544200
H         9.04469100     -0.08908700      0.02697800
O         7.45063000     -1.32677300     -1.05883600
C         5.75469100      1.10315700      1.05031500
N         5.65193100      1.97628700      1.81034300
