58
COc1ccc2c(c1)c1cc(OC)ccc1n2-c1ccc(-c2ccc(/C=C(\C#N)C(=O)O)cc2)cc1
C         3.66218900     -0.29062200     -1.56414000
C         2.99764300     -0.05890000     -0.34406900
C         3.78900400      0.15760100      0.80307900
C         5.17580900      0.14376600      0.74491300
C         5.84287700     -0.08928200     -0.47952900
C         5.04867400     -0.30493400     -1.62861200
C         7.28114900     -0.12598400     -0.65118700
C         8.30654900      0.03476400      0.23477700
C         9.69649700     -0.07248800     -0.30659600
C         1.52073700     -0.04450300     -0.26834600
C         0.74098100     -0.86358500     -1.10650200
C        -0.64918300     -0.84975400     -1.04329400
C        -1.30875300     -0.01945800     -0.12348500
C        -0.54393700      0.79783200      0.72360300
C         0.84555500      0.78715500      0.64464800
N        -2.71486900     -0.00688300     -0.05164700
C        -3.52893800      1.13450000     -0.06127300
C        -4.88657600      0.73499600      0.01636600
C        -5.91388400      1.69328000      0.00263100
C        -5.56871500      3.04304400     -0.09731800
C        -4.21061600      3.42680700     -0.19448000
C        -3.18642600      2.48784000     -0.18170000
C        -3.54389700     -1.13411900      0.03304400
C        -3.21447800     -2.49303000      0.12378900
C        -4.24876700     -3.41467400      0.23093300
C        -5.60349500     -3.00823400      0.25677200
C        -5.93370600     -1.65280400      0.18737300
C        -4.89598400     -0.71186200      0.07919700
H         3.30430400      0.31357700      1.76827900
H         5.74305500      0.30573500      1.65963000
H         1.23081200     -1.53457100     -1.81461500
H        -1.23537900     -1.47836800     -1.71472100
H        -1.04684500      1.43488600      1.45214500
H         1.41682400      1.44741500      1.29964700
H        -6.95294100      1.37165400      0.06267300
H        -3.99071500      4.49191700     -0.28447800
H        -2.14787800      2.80689100     -0.27259000
H        -2.17737000     -2.82936100      0.12047500
H        -4.03944000     -4.48331400      0.30241900
H        -6.96835600     -1.31354400      0.22190600
O        -6.46625900      4.06614200     -0.11705800
O        -6.51236800     -4.01633800      0.35852600
C        -7.83609000      3.76207900     -0.02989300
H        -8.37545800      4.71824200     -0.06094000
H        -8.17294000      3.13354500     -0.87491100
H        -8.08312700      3.24198100      0.91405600
C        -7.87928000     -3.68963400      0.39509200
H        -8.42939700     -4.63673700      0.47555900
H        -8.12813400     -3.05608200      1.26640500
H        -8.20175300     -3.16496600     -0.52321900
H         7.62701900     -0.31723500     -1.67209200
O        10.62603200      0.10073100      0.64668800
H        11.49388800      0.01617600      0.21715500
O         9.96573300     -0.28957600     -1.46428900
C         8.14508000      0.29538500      1.62962800
N         8.00117200      0.50763700      2.76297900
H         5.54211900     -0.47727000     -2.58826600
H         3.08238500     -0.43463100     -2.47728600
