45
COc1ccc2c(c1)c1cc(OC)ccc1n2-c1ccc(P(=O)(O)O)cc1
O        -4.48284500     -3.85940800      0.07972100
C        -4.24353200     -5.24422800      0.12849900
C        -3.42269500     -3.00491000      0.06003900
C        -2.07608500     -3.42393600      0.07614900
C        -1.03001700     -2.49563200      0.04885400
C        -1.34287300     -1.13766300     -0.00207800
C        -2.69742100     -0.70595900      0.00195000
C        -3.73361900     -1.63982200      0.02931000
C        -2.67653900      0.74579200     -0.00219000
C        -3.68556700      1.70892100     -0.02657900
C        -3.33608500      3.06467500     -0.05752500
C        -1.97818100      3.44503700     -0.07669500
C        -0.95895900      2.48703300     -0.05253500
C        -1.30998500      1.13843300     -0.00148500
N        -0.50337100     -0.01132000     -0.00267600
C         0.90242700     -0.03176900     -0.00780600
C         1.62538900      0.77079200      0.89347700
C         3.01648800      0.75690600      0.88489300
C         3.70944400     -0.07159800     -0.01201900
C         2.99011600     -0.87770100     -0.90504600
C         1.59709600     -0.85352100     -0.90989700
P         5.50145600     -0.11974100     -0.07966400
O         6.00840700      1.42667600     -0.24723500
O         5.87218100     -0.37757100      1.47778800
O         6.07247800     -1.03707900     -1.10043700
O        -4.37162700      3.94906400     -0.07422200
C        -4.09323400      5.32637000     -0.12332700
H        -5.22679200     -5.73352700      0.13815400
H        -3.67832300     -5.59778400     -0.75353800
H        -3.69094000     -5.53677500      1.04038600
H        -1.82862400     -4.48404700      0.11393900
H         0.00305400     -2.84245300      0.07730500
H        -4.78186700     -1.33700100      0.03461700
H        -4.74202000      1.43607900     -0.02928100
H        -1.70051600      4.49770000     -0.11448900
H         0.08353200      2.80434600     -0.08319100
H         1.08511100      1.38733100      1.61263600
H         3.56852200      1.37874600      1.59265100
H         3.53779500     -1.51283800     -1.60441000
H         1.03836300     -1.45751200     -1.62555700
H         6.29093400      1.58194500     -1.16071400
H         6.83081200     -0.37606800      1.62394900
H        -5.06220200      5.84345600     -0.13083900
H        -3.51636100      5.66364200      0.75759200
H        -3.53449000      5.60334400     -1.03636800
