53
O=P(O)(O)CCCCn1c2ccc(-c3cccs3)cc2c2cc(-c3cccs3)ccc21
C         2.02235000      3.04976900     -0.16931400
C         0.70403800      3.42733900     -0.52943600
C        -0.28602000      2.49035500     -0.81100500
C         0.05313600      1.13419200     -0.74587300
C         1.36866100      0.72442000     -0.38848900
C         2.34182600      1.68373300     -0.10166700
N        -0.72408000      0.00968200     -0.99027100
C         0.04732200     -1.12313400     -0.76653500
C         1.36391900     -0.72676800     -0.39818800
C        -0.29907900     -2.47613000     -0.85537800
C         0.68380200     -3.42315500     -0.58234000
C         2.00796500     -3.05906100     -0.22960400
C         2.33525600     -1.69611300     -0.14021000
C        -4.50343300      0.01556600     -0.33678700
C        -5.37601700      0.01034700      0.92208400
P        -7.15336600      0.01634800      0.61246300
O        -8.09012000      0.01169300      1.76758000
O        -7.31752000      1.31545300     -0.36171500
O        -7.32637500     -1.27075900     -0.37638400
C        -2.14192900      0.01597400     -1.27456600
C        -3.01057400      0.00851100     -0.01342300
H         0.46241300      4.48873900     -0.60576600
H        -1.29131900      2.81593400     -1.08362900
H         3.34570100      1.37109700      0.19437400
H        -1.31119900     -2.79151400     -1.11438100
H         0.42051600     -4.48151700     -0.61881000
H         3.35303700     -1.39388400      0.11658100
H        -4.75869900     -0.86177100     -0.95408700
H        -4.75284700      0.90249900     -0.94263300
H        -5.17165500      0.89150000      1.55245200
H        -5.17621900     -0.87933000      1.54187200
H        -8.17129300      1.74499100     -0.20063100
H        -8.17531200     -1.70641900     -0.20649700
H        -2.36882900      0.90227400     -1.88811800
H        -2.37371500     -0.85918000     -1.90213800
H        -2.75696000     -0.88011500      0.58949600
H        -2.75159900      0.88600600      0.60334400
C         3.00627400     -4.10260800      0.03259200
C         3.04212700     -5.40255900     -0.43260300
C         4.16946000     -6.14174500      0.03164900
H         2.29277600     -5.80682200     -1.11371600
C         4.98722100     -5.40313400      0.84945100
H         4.36977000     -7.17961200     -0.23827200
H         5.91033300     -5.71077000      1.33778800
C         3.02045700      4.08272900      0.13242700
C         2.82165000      5.37555400      0.57593000
C         4.03245300      6.10464700      0.76395500
H         1.83232700      5.78155300      0.78871200
C         5.14847600      5.36549300      0.46199800
H         4.07320600      7.13576600      1.11791200
H         6.19327900      5.66653100      0.51678100
S         4.73063000      3.77179000     -0.06525500
S         4.38258300     -3.79712500      1.06840900
