60
O=P(O)(O)CCCCn1c2ccccc2c2c1c1ccccc1n2CCCCP(=O)(O)O
C         4.33290300     -0.20327200     -0.18974800
C         4.02994200      1.08348500      0.29909200
C         2.70983300      1.48438900      0.48504800
C         1.67044200      0.58878300      0.17786800
C         1.99458300     -0.72067200     -0.33511100
C         3.32656700     -1.11425000     -0.50957700
C         0.24089700      0.61041300      0.23170300
C        -0.24089700     -0.61041300     -0.23170300
N         0.82406800     -1.42383300     -0.59271000
N        -0.82406800      1.42383300      0.59271000
C        -1.99458300      0.72067200      0.33511100
C        -1.67044200     -0.58878300     -0.17786800
C        -3.32656700      1.11425000      0.50957700
C        -4.33290300      0.20327200      0.18974800
C        -4.02994200     -1.08348500     -0.29909200
C        -2.70983300     -1.48438900     -0.48504800
C        -0.71639600      2.80431000      1.00738800
C        -0.50882100      3.77161800     -0.16083300
C        -0.37250000      5.22034100      0.30296900
C        -0.15255700      6.19061100     -0.86140000
P         0.01036700      7.92275200     -0.38579700
C         0.71639600     -2.80431000     -1.00738800
C         0.50882100     -3.77161800      0.16083300
C         0.37250000     -5.22034100     -0.30296900
C         0.15255700     -6.19061100      0.86140000
P        -0.01036700     -7.92275200      0.38579700
O         0.23234500      8.94745400     -1.44096200
O        -1.35163600      8.16204200      0.48186100
O        -0.23234500     -8.94745400      1.44096200
O        -1.20559100     -7.85471100     -0.72385500
O         1.35163600     -8.16204200     -0.48186100
O         1.20559100      7.85471100      0.72385500
H         5.37733800     -0.49546500     -0.32117000
H         4.84316300      1.77263600      0.53722700
H         2.48566900      2.48271600      0.86737500
H         3.57769400     -2.10809900     -0.88507800
H        -3.57769400      2.10809900      0.88507800
H        -5.37733800      0.49546500      0.32117000
H        -4.84316300     -1.77263600     -0.53722700
H        -2.48566900     -2.48271600     -0.86737500
H        -1.62521000      3.07099400      1.56823000
H         0.12189300      2.88722400      1.71914900
H         0.39373000      3.46736900     -0.71833400
H        -1.35591400      3.67233000     -0.86100000
H        -1.27485500      5.52478000      0.85892500
H         0.47010300      5.31097700      1.00853700
H         0.76280200      5.93930500     -1.42238900
H        -0.98837900      6.14852700     -1.57929100
H        -0.12189300     -2.88722400     -1.71914900
H         1.62521000     -3.07099400     -1.56823000
H         1.35591400     -3.67233000      0.86100000
H        -0.39373000     -3.46736900      0.71833400
H        -0.47010300     -5.31097700     -1.00853700
H         1.27485500     -5.52478000     -0.85892500
H         0.98837900     -6.14852700      1.57929100
H        -0.76280200     -5.93930500      1.42238900
H        -1.66814300      9.06943000      0.35659600
H        -1.73666700     -8.66462400     -0.68809100
H         1.66814300     -9.06943000     -0.35659600
H         1.73666700      8.66462400      0.68809100
