41
COc1ccc2c3ccc(OC)cc3n(CCP(=O)(O)O)c2c1
C         3.18209800     -2.67255600      0.26262500
C         3.50836300     -1.34159600     -0.07242900
C         2.50311200     -0.39934200     -0.34246700
C         1.17802800     -0.82134500     -0.27253000
C         0.82468000     -2.15820100      0.07427900
C         1.84469300     -3.07421700      0.33531600
N         0.01512500     -0.09376600     -0.50381200
C        -1.08581500     -0.91218900     -0.27320000
C        -0.62689800     -2.21643700      0.07382900
C        -2.44033000     -0.59704700     -0.34364400
C        -3.36726000     -1.61666200     -0.07430500
C        -2.93583600     -2.91737900      0.26063400
C        -1.57065800     -3.21101200      0.33414100
C        -0.04349700      1.32493400     -0.74877300
C        -0.08524600      2.13860700      0.55486600
P        -0.18562000      3.92063300      0.30562000
O         1.09249300      4.17357800     -0.67648300
O        -1.48906000      4.03747800     -0.67056900
O        -0.23582500      4.82720900      1.48231200
H         3.96654300     -3.39832100      0.47150200
H         2.79123100      0.62162500     -0.59391700
H         1.60611100     -4.10688600      0.60087000
H        -2.80862900      0.39792400     -0.59476500
H        -3.65986100     -3.70356600      0.46894900
H        -1.25058900     -4.22139000      0.59971600
H         0.83018300      1.62123900     -1.34617600
H        -0.93327200      1.54581400     -1.35523200
H        -0.95900400      1.85072800      1.16039100
H         0.81522500      1.94677900      1.15921000
H         1.46638600      5.05537300     -0.52829500
H        -1.98826700      4.84358600     -0.46999900
O         4.78256900     -0.87436600     -0.15646700
O        -4.67470200     -1.25272100     -0.15885600
C         5.85344400     -1.74983600      0.10252200
H         6.77437300     -1.16442400     -0.02181200
H         5.81991700     -2.14911300      1.13250400
H         5.87180600     -2.59935900     -0.60412000
C        -5.67231600     -2.21142800      0.09796300
H        -5.60803000     -2.60798700      1.12753500
H        -6.63703400     -1.70149000     -0.02679100
H        -5.62183400     -3.05885100     -0.60963700
