55
COc1ccc2c(c1)c1cc(OC)ccc1n2-c1ccc([Si](OC)(OC)OC)cc1
C         3.95534200      3.02863400      0.06393900
C         2.59309300      3.40939900      0.08193800
C         1.57332700      2.46588300      0.05772400
C         1.92451400      1.11011800      0.00758200
C         3.28591500      0.71458000      0.00990100
C         4.30869000      1.67790000      0.03378800
N         1.11537900     -0.03344500      0.00355300
C         1.94981200     -1.15870900      0.00301900
C         3.30199700     -0.73315100      0.00474500
C         1.62815700     -2.52182600     -0.04650700
C         2.66852600     -3.44255000     -0.06597600
C         4.02209900     -3.03186700     -0.04386400
C         4.34587100     -1.67374100     -0.01463100
H         2.36619000      4.47625700      0.11898400
H         0.53039800      2.78237300      0.08508800
H         5.35033900      1.35886700      0.03492500
H         0.59244100     -2.86102700     -0.07635200
H         2.46523000     -4.51417600     -0.10189400
H         5.38029100     -1.33193000     -0.01246900
O         4.93769400     -4.04009900     -0.05957800
O         4.84862900      4.05663600      0.08465500
C         6.30321600     -3.70837100     -0.04022300
C         6.22119500      3.75467300      0.07342600
H         6.59471400     -3.11014700     -0.92339200
H         6.57711700     -3.14395700      0.87040600
H         6.85990000     -4.65508800     -0.05285500
H         6.51312300      3.19776300     -0.83621400
H         6.75704100      4.71326600      0.09084000
H         6.52005800      3.16165800      0.95763000
C        -0.29489500     -0.04905100      0.01056800
C        -0.99047100     -0.84302100      0.93593300
C        -1.01614400      0.73388500     -0.90385000
C        -2.38406700     -0.86033000      0.93511200
H        -0.43004800     -1.42909500      1.66586500
C        -2.41019000      0.72728800     -0.87862100
H        -0.47716500      1.33570100     -1.63694600
C        -3.12286300     -0.07601800      0.03113600
H        -2.91498300     -1.47629400      1.66441400
H        -2.95330400      1.35538400     -1.59059900
Si       -4.97931200     -0.09327100      0.01707300
O        -5.45813800     -0.74113200      1.45717300
O        -5.65354700     -1.01644300     -1.17601500
O        -5.55702300      1.44276300     -0.24734900
C        -5.24192500      2.56787000      0.54254200
H        -4.15760500      2.78279000      0.53791400
H        -5.76959200      3.44480200      0.13614900
H        -5.55661100      2.42996600      1.59257700
C        -6.76905800     -1.17737600      1.75485400
H        -6.75738400     -1.68153100      2.73342300
H        -7.47419600     -0.32866900      1.80959700
H        -7.13948900     -1.88510900      0.99405300
C        -5.66683600     -0.71122100     -2.55175600
H        -4.65089200     -0.75078600     -2.98708900
H        -6.28920500     -1.45526500     -3.07301300
H        -6.08640500      0.29237400     -2.74069600
