51
O=P(O)(O)CCCCn1c2ccc3cc(Br)ccc3c2c2c3ccc(Br)cc3ccc21
C        -1.33039600     -3.11628700     -0.09422800
C         0.03480700     -3.52723500     -0.19718100
C         1.02637700     -2.63555100     -0.52519400
C         0.67796600     -1.27344500     -0.67419300
C        -0.63222400     -0.77757900     -0.45177900
C        -1.69170900     -1.73440800     -0.27340000
N         1.51140300     -0.23132700     -1.02941100
C         0.78993900      0.94557100     -0.97632600
C        -0.53955900      0.66908700     -0.56672900
C         1.25135700      2.24537000     -1.28643600
C         0.37469600      3.29415100     -1.15587800
C        -0.94208600      3.10218200     -0.63369200
C        -1.40149600      1.78472400     -0.27952800
C         5.27497300     -0.28286700     -0.28828900
C         6.12244400     -0.12389000      0.97736200
P         7.90443700     -0.23505800      0.71610900
O         8.81641300     -0.09318600      1.88197800
O         8.03974400     -1.66677700     -0.05525000
O         8.14186800      0.88770400     -0.44431300
C         2.93535700     -0.33557600     -1.27411300
C         3.77786600     -0.17034400     -0.00695800
H         0.27295700     -4.58330900     -0.05244000
H         2.05705300     -2.96938600     -0.65328400
H         2.27392000      2.41186500     -1.62814100
H         0.69191900      4.30849600     -1.40777700
H         5.57806500      0.48245900     -1.02198700
H         5.49903800     -1.25903000     -0.74962000
H         5.87309400     -0.89556700      1.72428900
H         5.94515600      0.85320800      1.45653900
H         8.87389200     -2.09668500      0.18726900
H         9.00403400      1.31360600     -0.32288400
H         3.13556300     -1.31097600     -1.74346700
H         3.21547300      0.42346500     -2.02040200
H         3.54971700      0.80832900      0.44862200
H         3.47105200     -0.93338400      0.72867500
C        -2.63243400      1.69438300      0.42202500
H        -2.94986700      0.73516400      0.82223600
C        -1.77677300      4.22583100     -0.39913400
C        -2.99685900      4.07208900      0.22393700
C        -3.41979400      2.80228100      0.66987800
C        -3.07617300     -1.43212800     -0.36025500
H        -3.38749100     -0.42527900     -0.62618000
C        -2.34333300     -4.08633700      0.12272200
C        -3.67351200     -3.72537500      0.09783800
C        -4.05082000     -2.39422100     -0.17757400
H        -2.05653300     -5.12669100      0.28449600
H        -1.42916200      5.21685600     -0.69592000
H        -5.10675000     -2.13380300     -0.26045000
H        -4.35619900      2.70249200      1.22028700
Br       -4.11080000      5.58649000      0.53822600
Br       -5.02740500     -5.03566600      0.38628300
