51
O=P(O)(O)CCCCn1c2ccc3ccccc3c2c2c3ccccc3ccc21
C        -2.73147400     -3.09211600      0.09276800
C        -1.36536600     -3.46651800     -0.09618200
C        -0.41034500     -2.54284700     -0.44425100
C        -0.79551900     -1.18484900     -0.52576700
C        -2.10131500     -0.72614700     -0.21713600
C        -3.13123800     -1.71291900     -0.01899500
N        -0.00332400     -0.11243800     -0.88739800
C        -0.74463300      1.04625500     -0.75402700
C        -2.04380900      0.72641200     -0.28410400
C        -0.32557700      2.36554200     -1.04156100
C        -1.21558200      3.38897400     -0.82603000
C        -2.49782500      3.15221200     -0.24119100
C        -2.91136500      1.81305700      0.09073400
C         3.79402700     -0.10401700     -0.34652000
C         4.70418700      0.03073700      0.87790600
P         6.47163300     -0.02908100      0.52114300
O         7.44084700      0.09314800      1.64257000
O         6.59931500     -1.42932200     -0.30740800
O         6.62518900      1.13892100     -0.60853700
C         1.40650800     -0.17729400     -1.20938200
C         2.31191900     -0.03899700      0.01713200
H        -1.09801400     -4.52170500     -0.00215200
H         0.61896400     -2.84778200     -0.63886900
H         0.67366800      2.56545400     -1.43123500
H        -0.93277500      4.41854700     -1.05786700
H         4.03959400      0.69475400     -1.06600900
H         4.01560600     -1.05686200     -0.85540200
H         4.51157200     -0.77208700      1.60866900
H         4.53071200      0.98599400      1.40054600
H         7.45350200     -1.84758800     -0.12099100
H         7.48322200      1.57972300     -0.51455200
H         1.60144500     -1.13116300     -1.72337200
H         1.63340200      0.61353800     -1.94080200
H         2.08647700      0.91610500      0.52146600
H         2.06184600     -0.83625800      0.73779800
C        -4.10014900      1.66905500      0.85404300
H        -4.37302200      0.68727500      1.23152100
C        -3.34573800      4.24391300      0.08204800
C        -4.52971100      4.05659300      0.76556000
C        -4.88973200      2.75618800      1.18014900
C        -4.52416600     -1.43664600     -0.02273500
H        -4.86438500     -0.42634400     -0.23409800
C        -3.71703300     -4.08656500      0.32696800
C        -5.05866800     -3.76913100      0.38526800
C        -5.46220300     -2.43261100      0.17674600
H        -3.39055100     -5.12433900      0.43576200
H        -3.02635100      5.25014100     -0.20240500
H        -6.52575200     -2.18224500      0.15744400
H        -5.79274500      2.60589300      1.77692700
H        -5.80465700     -4.54820600      0.55805900
H        -5.16695800      4.90877200      1.01257000
