51
O=P(O)(O)CCCCn1c2cc(Br)c3ccccc3c2c2c3ccccc3c(Br)cc21
C        -2.67904500     -3.00186300     -0.01332000
C        -1.31363900     -3.38937800     -0.23281700
C        -0.32490500     -2.47539300     -0.50986900
C        -0.66251000     -1.10613700     -0.47686100
C        -1.94894800     -0.63095800     -0.12479300
C        -3.01082300     -1.59578900     -0.01649200
N         0.16981000     -0.03836700     -0.74978000
C        -0.53150000      1.12805600     -0.51215300
C        -1.83858700      0.81780700     -0.06495700
C        -0.06531100      2.44748200     -0.68854100
C        -0.91931400      3.47949300     -0.38025300
C        -2.21394600      3.25866400      0.20099500
C        -2.65700400      1.90014800      0.41385400
C         3.96601300     -0.21203600     -0.22938300
C         4.88434100     -0.20403000      0.99623900
P         6.64635800     -0.31269300      0.62263900
O         7.62515400     -0.31059000      1.74203300
O         6.70666100     -1.65550300     -0.30270000
O         6.84217700      0.92416600     -0.42389300
C         1.57723400     -0.12527100     -1.08251300
C         2.48865400     -0.11771200      0.14703000
H         0.69013300     -2.80540600     -0.72704500
H         0.93475600      2.65066000     -1.06930200
H         4.24012400      0.62811600     -0.88879800
H         4.14839500     -1.13230200     -0.80877700
H         4.66089100     -1.04936300      1.66786000
H         4.75293000      0.71745600      1.58718600
H         7.54331700     -2.12273400     -0.15748500
H         7.71904800      1.32082600     -0.30939500
H         1.73698400     -1.04036100     -1.67304400
H         1.82830800      0.71362700     -1.74959900
H         2.30172500      0.80322100      0.72517900
H         2.20948900     -0.95866100      0.80463100
C        -3.83780500      1.71045600      1.17905000
H        -4.12169400      0.70116200      1.46470800
C        -3.04172000      4.32746500      0.63368700
C        -4.22013900      4.09663600      1.31320600
H        -4.83507400      4.93720700      1.64197900
C        -4.60255200      2.77400300      1.61696200
C        -4.38754800     -1.24894000     -0.01006200
H        -4.66690000     -0.20734900     -0.14514700
C        -3.72083200     -3.95329100      0.14201100
C        -5.04355600     -3.56766600      0.21623100
H        -5.82686300     -4.32066300      0.32678300
C        -5.37978800     -2.20291000      0.10496800
H        -3.45792700     -5.01048300      0.17646100
H        -2.71490000      5.34896200      0.43962300
H        -6.42842200     -1.89630600      0.09578700
H        -5.49956600      2.58620000      2.21179200
Br       -0.81452100     -5.23477700     -0.20908500
Br       -0.28808900      5.25699300     -0.69266700
