48
CC1(C)c2cc(Br)ccc2N(CCCCP(=O)(O)O)c2ccc(Br)cc21
C        -1.93707600      3.58973700     -0.19440900
C        -0.55949100      3.59078700      0.00535600
C         0.07832100      2.40479100      0.36629400
C        -0.64580900      1.21069300      0.54537400
C        -2.05415400      1.23491200      0.39745100
C        -2.67601600      2.42214700      0.00405300
N        -0.00658100      0.00070400      0.85830700
C        -0.64261800     -1.21097500      0.54543600
C        -2.05089700     -1.23891200      0.39749900
C         0.08465100     -2.40318200      0.36643700
C        -0.55003800     -3.59086800      0.00555200
C        -1.92761500     -3.59345100     -0.19423900
C        -2.66962800     -2.42779800      0.00415400
C         1.41344700      0.00255200      1.17987200
C         2.36273300      0.00367800     -0.02617000
H         0.02107500      4.50349300     -0.13398000
H         1.15888100      2.42451100      0.48864600
H        -3.75568900      2.45670200     -0.12566000
H         1.16525500     -2.42006100      0.48882000
H         0.03292300     -4.50205700     -0.13371800
H        -3.74920500     -2.46520100     -0.12556600
H         1.61609000      0.87876200      1.81364100
H         1.61832500     -0.87308500      1.81371800
H         2.15925000     -0.87404800     -0.66013100
H         2.15794400      0.88149700     -0.65957800
Br       -2.81308100     -5.19910700     -0.71923800
Br       -2.82678600      5.19302800     -0.71946200
C        -2.84767000     -0.00303700      0.81177300
C        -4.26992700     -0.00491500      0.23963600
H        -4.83140500      0.87295200      0.58720000
H        -4.26697000     -0.00494100     -0.86053900
H        -4.82910400     -0.88422900      0.58724900
C        -2.94092700     -0.00313200      2.36271500
H        -3.47674200     -0.89990800      2.71070300
H        -1.94084400     -0.00179800      2.81930900
H        -3.47911400      0.89223500      2.71067100
C         3.82718500      0.00463700      0.40862100
H         4.03200900      0.88623900      1.03867900
H         4.03343600     -0.87729400      1.03777500
C         4.79242700      0.00598500     -0.78045000
H         4.63787400      0.89163300     -1.41871900
H         4.63862200     -0.87886200     -1.42001800
P         6.54163600      0.00603400     -0.33851500
O         7.56240000      0.00458400     -1.41998900
O         6.63324300      1.30025900      0.65137100
H         7.50044100      1.72441700      0.56516700
O         6.63633900     -1.28665100      0.65362200
H         7.49660300     -1.72104400      0.55064600
