56
CC1(C)c2ccccc2-c2cc3c4ccccc4n(CCCCP(=O)(O)O)c3cc21
C        -6.84945300     -1.06771800     -0.88107100
C        -6.65541800     -2.41910500     -0.56942000
C        -5.40449400     -2.87307200     -0.12733200
C        -4.35891800     -1.96435500     -0.00231000
C        -4.55368700     -0.60227300     -0.31689800
C        -5.80099700     -0.14986700     -0.75765700
C        -2.92300800     -2.21733800      0.45279000
C        -2.32196200     -0.81576000      0.35755600
C        -3.29258100      0.11704000     -0.09748300
C        -1.02019300     -0.42843100      0.64830000
C        -0.70428500      0.92797800      0.47513500
C        -1.66579100      1.87554800      0.01048300
C        -2.97386200      1.46327300     -0.27463600
N         0.50164300      1.57960600      0.69727400
C         0.36045500      2.92009600      0.35648900
C        -0.98049300      3.15191600     -0.06459100
C         1.30684200      3.95033500      0.38423900
C         0.89244300      5.22547800     -0.00491500
C        -0.43042800      5.47268700     -0.41556900
C        -1.36944700      4.44148900     -0.44815200
C         1.73846400      0.93470300      1.07523900
C         2.52702500      0.39239800     -0.12002100
C         3.82116900     -0.29942100      0.30334100
C         4.61021400     -0.84760500     -0.88924200
P         6.14234700     -1.69822200     -0.46104700
O         5.63592500     -2.80427700      0.62968000
O         6.97230600     -2.28443800     -1.54714800
O         6.90481300     -0.56144300      0.42537400
C        -2.88185300     -2.74601500      1.89928400
C        -2.20349900     -3.19592200     -0.49510100
H        -7.82949800     -0.72726700     -1.22430100
H        -7.48409100     -3.12391100     -0.67140600
H        -5.25935500     -3.92950500      0.11410200
H        -5.95770500      0.90338700     -1.00303300
H        -0.27574300     -1.14959200      0.99179600
H        -3.71933300      2.17864200     -0.62980200
H         2.33747500      3.77053300      0.69522700
H         1.61304700      6.04671100      0.00824600
H        -0.72125100      6.48208600     -0.71443300
H        -2.39509000      4.63523800     -0.77123400
H         2.34935300      1.65775600      1.63836300
H         1.50458000      0.11886900      1.77817200
H         1.88662200     -0.31075200     -0.67961700
H         2.74844300      1.22551400     -0.80883300
H         4.45897700      0.40453900      0.86322000
H         3.59524100     -1.12813100      0.99490500
H         4.01086000     -1.57347400     -1.46352400
H         4.88975400     -0.04179100     -1.58792200
H         6.10768700     -3.63900400      0.48864500
H         7.86540300     -0.67679300      0.36745000
H        -3.37919900     -3.72634400      1.96899300
H        -1.84153500     -2.86786900      2.24104700
H        -3.39058500     -2.05199000      2.58447900
H        -2.68424200     -4.18667200     -0.47001100
H        -2.22844200     -2.82685000     -1.53109400
H        -1.14987500     -3.32234000     -0.19865900
