73
COc1cc(OC)cc(-c2ccc3c(c2)c2cc(-c4cc(OC)cc(OC)c4)ccc2n3-c2ccc(P(=O)(O)O)cc2)c1
C        -1.22668600     -3.01351300     -0.15926100
C         0.12301400     -3.43994300     -0.16924100
C         1.19022500     -2.54480000     -0.13134300
C         0.89832200     -1.17808700     -0.08700600
C        -0.44527700     -0.71952900     -0.05647700
C        -1.49703800     -1.63881200     -0.09679600
N         1.75705000     -0.07389400     -0.01337700
C         0.98013600      1.08857800      0.06528200
C        -0.39314400      0.72738500      0.04413400
C         1.36911700      2.43103500      0.10654300
C         0.36905300      3.40042400      0.15107600
C        -1.00763400      3.07155800      0.15082600
C        -1.37600200      1.71962600      0.09123800
C         3.16686600     -0.12441500     -0.01683600
C         5.96678700     -0.22552900     -0.01659100
P         7.75982900     -0.30683700     -0.08123500
O         8.31532800     -1.12171200     -1.19287700
O         8.29793600      1.23704600     -0.07839700
O         8.10867700     -0.74090000      1.44099800
C         5.23720200     -0.91003100     -0.99789300
C         3.84448000     -0.85405200     -1.00452400
C         3.89767800      0.55545100      0.97220000
C         5.28868800      0.51216400      0.96635300
H         0.33664800     -4.50843800     -0.23323600
H         2.21805100     -2.90818700     -0.13895000
H        -2.52974900     -1.28826700     -0.04848700
H         2.42038600      2.71986900      0.10676800
H         0.65879200      4.45100700      0.21265800
H         8.59954600      1.48280200     -0.96561100
H         9.06525100     -0.78366100      1.59454400
H         5.77584400     -1.47567200     -1.76096000
H         3.27443100     -1.36322500     -1.78263000
H         3.36465200      1.10117000      1.75180000
H         5.85116800      1.03871700      1.73994200
H        -2.43148400      1.44393200      0.05032600
C        -2.33335700     -4.00304800     -0.20823100
C        -3.49761700     -3.71765100     -0.94005600
C        -2.22064000     -5.22285300      0.47852600
C        -4.54437100     -4.65191200     -0.97974200
H        -3.55839600     -2.78538700     -1.49742500
C        -3.27270900     -6.15083800      0.43057000
H        -1.32873400     -5.41934600      1.06953500
C        -4.43287600     -5.86662400     -0.29632000
H        -5.24702200     -6.59016700     -0.33110300
C        -2.04029500      4.13771600      0.20685600
C        -3.21548800      3.93756700      0.94939900
C        -1.84669800      5.34518300     -0.48374900
C        -4.19236100      4.94439300      0.99603600
H        -3.33791800      3.01291100      1.50932300
C        -2.82925500      6.34609200     -0.42875700
H        -0.94843500      5.47623100     -1.08324000
C        -4.00022900      6.14690300      0.30892000
H        -4.76030200      6.92680300      0.34892100
O        -5.35194300      4.83970100      1.69375400
O        -2.73004200      7.53786800     -1.07118100
O        -5.69948000     -4.46281600     -1.66717800
O        -3.25321700     -7.34806800      1.06999700
C        -5.61519600      3.65640800      2.40999100
H        -4.86153600      3.47482100      3.19730100
H        -6.59801800      3.78761100      2.88197300
H        -5.65148500      2.77317400      1.74687200
C        -1.57719300      7.81173700     -1.83128900
H        -1.70652900      8.82090100     -2.24463800
H        -0.66184900      7.79283800     -1.21244900
H        -1.45361500      7.09699200     -2.66488400
C        -5.88294100     -3.26231000     -2.37954500
H        -5.12496200     -3.13389500     -3.17316600
H        -6.87669800     -3.32143800     -2.84310700
H        -5.84977600     -2.38002000     -1.71497700
C        -2.11493600     -7.70652300      1.81698600
H        -2.31207500     -8.70515100      2.22911400
H        -1.20726700     -7.75129300      1.18832000
H        -1.93155200     -7.00527400      2.65102500
