122
CCCCCCn1nc2c(n1)c1c3sc(-c4ccc(N(c5ccccc5)c5ccccc5)cc4)cc3n(CCCCCC)c1c1c2c2sc(/C=C(\C#N)C(=O)O)cc2n1CCCCCC
C         2.90698200     10.50372100      2.34327700
C         2.88860000      9.71747900      1.03352900
C         2.75437000      8.20728300      1.23501800
C         2.72748900      7.41557200     -0.07254200
C         2.59420700      5.90769300      0.13378300
C         2.55196900      5.14370100     -1.18882400
N         2.42652700      3.70907600     -0.99283700
N         3.49447500      2.92200800     -0.92925100
C         2.97313800      1.71675200     -0.65171700
C         1.56284900      1.85310800     -0.55048200
N         1.24795600      3.14066600     -0.76893300
C         3.58793000      0.45103200     -0.43778700
C         4.93437000      0.03231300     -0.39241400
C         4.94575200     -1.33180300     -0.05196800
N         3.64025900     -1.78468300      0.09662400
C         3.37461200     -3.01435500      0.83326000
C         2.79552300     -2.77587700      2.22751600
C         2.53377700     -4.08008500      2.97886300
C         1.94149200     -3.87022000      4.37245900
C         1.67109700     -5.17297100      5.12635300
C         1.07982900     -4.95491400      6.51797000
C         6.23372000     -1.87139700      0.06651400
C         7.22298400     -0.91119100     -0.19747600
C         8.61118600     -1.19877800     -0.15400400
C         9.70793800     -0.40271800     -0.38144900
C        11.04478800     -1.03356300     -0.24721800
O        12.04858700     -0.17046400     -0.48993000
O        11.23395400     -2.19352700      0.04699600
C         9.61998500      0.97560600     -0.73199900
N         9.53493100      2.09992500     -1.01668200
S         6.52403100      0.67584200     -0.59261400
C         2.78005000     -0.70010700     -0.14445200
C         1.34880100     -0.58057200     -0.15054500
C         0.74669100      0.71161800     -0.31061700
C        -0.65205600      0.52542500     -0.23727400
C        -0.89338200     -0.84097800     -0.07365100
N         0.31064300     -1.52352700     -0.01192700
C         0.34731700     -2.96042900     -0.25230700
C         0.91212000     -3.33453300     -1.62238100
C         0.93181300     -4.84525600     -1.85048400
C         1.49855200     -5.24701600     -3.21199500
C         1.53294300     -6.75892900     -3.44043100
C         2.09633100     -7.15159900     -4.80497000
C        -2.27019200     -1.18496900     -0.03018800
C        -3.07512200     -0.06344000     -0.14927800
C        -4.53504700     -0.00458100     -0.14220800
C        -5.22938800      1.17012700      0.21028100
C        -6.61822600      1.21650100      0.22660400
C        -7.37888000      0.08547700     -0.12214000
N        -8.78711400      0.13021700     -0.11459600
C        -9.53840900     -1.00395800      0.28211200
C       -10.69202100     -1.37347700     -0.42961900
C       -11.43886100     -2.48200500     -0.03113600
C       -11.04159000     -3.24825500      1.06894600
C        -9.88980300     -2.88635100      1.77453800
C        -9.14654200     -1.76911400      1.39357900
C        -9.46629300      1.31363800     -0.50095100
C       -10.57206600      1.76798400      0.23652100
C       -11.24645000      2.92607800     -0.15033500
C       -10.82141400      3.65671600     -1.26416300
C        -9.71653600      3.20964500     -1.99555000
C        -9.04715500      2.04296200     -1.62604000
C        -6.69561100     -1.09109500     -0.48418200
C        -5.30714500     -1.13227200     -0.48954200
S        -2.13048200      1.42380900     -0.33321500
H         3.00411200     11.58639800      2.16583600
H         1.98036100     10.34122600      2.91875800
H         3.74982900     10.19327900      2.98305900
H         3.81137000      9.92557400      0.46253300
H         2.05659100     10.07300400      0.39900400
H         1.83332100      7.99490000      1.80849300
H         3.58903900      7.84595500      1.86334800
H         3.64763300      7.62760700     -0.64721900
H         1.89078200      7.77556500     -0.69934200
H         1.67547700      5.67965900      0.69986900
H         3.43992800      5.52871500      0.73212800
H         3.47345400      5.29943500     -1.76617100
H         1.69328900      5.46064700     -1.79795500
H         2.73572800     -3.68351900      0.24459200
H         4.33688600     -3.53674200      0.92223200
H         3.49703300     -2.14174900      2.79528100
H         1.86026800     -2.19792000      2.14603400
H         1.84965200     -4.71626300      2.38625700
H         3.47523700     -4.65345400      3.06198800
H         2.62526700     -3.23734000      4.96697500
H         1.00142700     -3.29505300      4.28533300
H         0.98852800     -5.80283100      4.52727500
H         2.61258800     -5.74566500      5.20859200
H         0.89909200     -5.90977400      7.03605000
H         1.75672900     -4.35541400      7.14898200
H         0.11871700     -4.41705700      6.46381400
H         6.48665200     -2.90031800      0.32196800
H         8.86397300     -2.23176900      0.10646100
H        12.87567500     -0.66796400     -0.37906800
H         0.88644200     -3.47209400      0.55403500
H        -0.68991600     -3.31414000     -0.17756900
H         0.30588300     -2.83839800     -2.39882600
H         1.93197200     -2.92901500     -1.72733600
H         1.52525400     -5.33084600     -1.05294300
H        -0.09234800     -5.24797000     -1.74514700
H         0.90183600     -4.76865400     -4.00994500
H         2.51997900     -4.83722400     -3.31628800
H         2.13198500     -7.23191500     -2.64113900
H         0.51122300     -7.16492900     -3.32922900
H         2.11009900     -8.24457300     -4.93909900
H         1.49477400     -6.72197700     -5.62311700
H         3.12929200     -6.78647200     -4.93010100
H        -2.67304700     -2.18514100      0.12194200
H        -4.66756800      2.05778200      0.51020100
H        -7.12684300      2.13537700      0.52056100
H       -10.99830000     -0.78323100     -1.29464600
H       -12.33397900     -2.75630100     -0.59477000
H       -11.62512700     -4.11930600      1.37466300
H        -9.57241900     -3.47107600      2.64149600
H        -8.25594600     -1.48087300      1.95426000
H       -10.89810600      1.20486400      1.11239000
H       -12.10502100      3.26737800      0.43317300
H       -11.34710400      4.56698500     -1.56039300
H        -9.37836900      3.76692600     -2.87257300
H        -8.19270700      1.68887300     -2.20493400
H        -7.26630500     -1.97361100     -0.77593000
H        -4.80720100     -2.04957200     -0.80673900
