54
O=P(O)(O)CCCCn1c2ccccc2c2c3sc4ccccc4c3c3ccccc3c21
C        -3.05551400     -0.87843000     -0.09303300
C        -1.90893300     -1.68626200     -0.45134900
C        -0.60521900     -1.07910800     -0.62521200
C        -0.51382700      0.35285000     -0.52013900
C        -1.64660200      1.13913400     -0.22452100
C        -2.89445400      0.51244200     -0.01623500
N         0.57767900      1.21020100     -0.68352400
C         0.16124600      2.51834000     -0.46226300
C        -1.23226200      2.51913400     -0.18222500
C         0.90306700      3.70649500     -0.48555800
C         0.22793400      4.90025300     -0.23486900
C        -1.15366900      4.91748100      0.03701400
C        -1.88924900      3.73534000      0.06639400
C         4.20167300      0.06357600     -0.16284500
C         5.04843500     -0.31964800      1.05427000
P         6.72889100     -0.85170500      0.67021200
O         7.63586600     -1.24810400      1.78008700
O         6.46188900     -2.04126700     -0.41534000
O         7.28213800      0.40361900     -0.21393800
C         1.95462600      0.88646500     -1.00267700
C         2.78529800      0.48777500      0.21945000
H         1.97562500      3.71023300     -0.68495800
H         0.78522200      5.83985600     -0.24650100
H         4.70558600      0.87655200     -0.71137800
H         4.15996700     -0.79492600     -0.85416800
H         4.58591100     -1.14820000      1.61571900
H         5.14645500      0.52583400      1.75502000
H         7.13566600     -2.73178200     -0.32298000
H         8.23156300      0.52449500     -0.06119300
H         1.97461400      0.10164000     -1.77058100
H         2.39920600      1.77156400     -1.48002500
H         2.81377700      1.33849500      0.92108600
H         2.27813400     -0.33325900      0.75293300
C        -4.43147900     -1.26681100      0.23091300
C        -5.25300100     -0.12944600      0.47462400
H        -2.95875700      3.75798800      0.28099000
H        -1.65183800      5.86994800      0.23006600
C        -6.60933200     -0.22504400      0.79691400
C        -5.04759500     -2.52846400      0.38305700
H        -4.47932700     -3.44823100      0.27774000
C        -6.39760400     -2.63109100      0.70906500
C        -7.18564600     -1.48741700      0.90507300
H        -7.19954400      0.67763800      0.96892000
H        -8.24405700     -1.58452200      1.15657400
H        -6.84371100     -3.62197200      0.82027400
S        -4.36659600      1.37774800      0.36359900
C         0.50107000     -1.92949200     -0.89342000
H         1.49867400     -1.51348500     -0.97761000
C        -2.01195600     -3.08453500     -0.66866400
C        -0.91712600     -3.87495600     -0.96233400
H        -1.04925200     -4.94714000     -1.12419300
C         0.35948000     -3.29481800     -1.05020500
H         1.23706600     -3.91206500     -1.25444800
H        -2.98787400     -3.55500700     -0.63119000
