65
CCCCCCc1cc(-c2sc(-c3ccc(C(=O)O)cc3)cc2CCCCCC)sc1Br
C        -5.28642100     -7.73012500      0.93060600
C        -3.94074900     -7.05567500      0.66926200
C        -4.03411900     -5.53167200      0.57711300
C        -2.69143100     -4.84724900      0.32239900
C        -2.78937000     -3.32452000      0.23001900
C        -1.43472700     -2.66066500     -0.01900800
C        -1.45094700     -1.15413100     -0.08795800
C        -0.30627900     -0.35969400     -0.17033700
C         1.09526300     -0.72018800     -0.19645500
C         2.18142400      0.13336200     -0.07780000
C         3.45755100     -0.49558500     -0.17111300
C         4.79137300      0.19794900     -0.06669400
C         4.72802900      1.70048500      0.20505200
C         6.11233500      2.33946100      0.31169700
C         6.07567800      3.84257600      0.58749600
C         7.46133700      4.48169100      0.69148900
C         7.41790400      5.98334200      0.96939000
C         3.30876300     -1.85396200     -0.36489200
S         1.65480600     -2.36824200     -0.43165800
Br        4.69415600     -3.11507300     -0.52867000
S        -0.72573500      1.33761500     -0.24289400
C        -2.43363700      0.99588200     -0.13869400
C        -3.42589500      2.06803400     -0.13769900
C        -3.04322900      3.42635200     -0.10621800
C        -3.99268800      4.43968000     -0.10529300
C        -5.36112700      4.13181300     -0.13274100
C        -6.33681800      5.25065700     -0.12864600
O        -7.62197300      4.83225800     -0.15556200
O        -6.04337800      6.42433100     -0.10396300
C        -5.75753600      2.78498900     -0.16358300
C        -4.80601900      1.77249400     -0.16800900
C        -2.63742900     -0.36966800     -0.06907000
H        -5.18742600     -8.82538500      0.99158100
H        -5.72938600     -7.38155100      1.87847100
H        -6.00840000     -7.50429900      0.12810500
H        -3.50366900     -7.44855700     -0.26647800
H        -3.22815200     -7.32635000      1.46922500
H        -4.47391900     -5.13597500      1.51135800
H        -4.74287400     -5.25771300     -0.22634200
H        -2.24947100     -5.24191900     -0.61078100
H        -1.98341900     -5.11892800      1.12658300
H        -3.22857000     -2.92821400      1.16243300
H        -3.49087800     -3.05537200     -0.57897400
H        -1.01086200     -3.06154500     -0.95816300
H        -0.73164700     -2.97718500      0.77183100
H         2.05868800      1.20390800      0.08338400
H         5.38241000     -0.29442200      0.72575700
H         5.35699600      0.01634000     -0.99811300
H         4.15717600      2.19935700     -0.59798400
H         4.16759600      1.88435200      1.13874700
H         6.67286600      2.15215400     -0.62251200
H         6.68595000      1.83484300      1.11064500
H         5.49987500      4.34689300     -0.21057100
H         5.51653000      4.02911400      1.52310200
H         8.01717000      4.29354100     -0.24488500
H         8.03511900      3.97343700      1.48746900
H         8.42954900      6.41388400      1.03580300
H         6.87799200      6.52111900      0.17222400
H         6.90062600      6.19882300      1.91923000
H        -1.98364800      3.68959300     -0.07631700
H        -3.69465200      5.48913600     -0.08056500
H        -8.16870600      5.63545400     -0.15058600
H        -6.81959700      2.53953200     -0.18758600
H        -5.13778700      0.73412100     -0.20179900
H        -3.63068000     -0.80712400      0.00632400
