87
CCCCCCc1cc(-c2sc(-c3ccc(C(=O)O)cc3)cc2CCCCCC)sc1-c1cc(OC)c(OC)c(OC)c1
C        -2.72303000      8.99929000      0.22703800
C        -1.81044700      7.77440500      0.19920300
C        -2.57419600      6.45016400      0.14583000
C        -1.66949000      5.21868100      0.11335900
C        -2.43646900      3.89746300      0.05867600
C        -1.51167900      2.68082700      0.01887900
C        -2.19953900      1.34050400     -0.04934500
C        -1.52985400      0.11774900     -0.13572700
C        -0.11613000     -0.18656600     -0.17556000
C         0.46540000     -1.43909900     -0.29850200
C         1.88880700     -1.44341900     -0.30089400
C         2.71682400     -2.70348800     -0.37620400
C         2.08495700     -3.92695900      0.29516500
C         3.00379500     -5.14852300      0.28528500
C         2.38099100     -6.38789000      0.92763000
C         3.29744700     -7.61253400      0.92269400
C         2.66232800     -8.84662400      1.56133900
C         2.41029300     -0.16071600     -0.17671000
S         1.13842200      1.03029100     -0.06538600
S        -2.66676000     -1.21231200     -0.20192300
C        -4.04100100     -0.14047400     -0.12078800
C        -5.40814600     -0.65313300     -0.13992700
C        -5.68526200     -2.00024700     -0.45870600
C        -6.98852800     -2.47918300     -0.47821100
C        -8.06360900     -1.62731600     -0.18291300
C        -9.43821600     -2.18583600     -0.21924800
O       -10.38894100     -1.27306000      0.08285200
O        -9.71250800     -3.33356800     -0.48756000
C        -7.80359000     -0.28466500      0.13662200
C        -6.49860300      0.19182700      0.16051400
C        -3.61171000      1.17103100     -0.04096600
H        -2.14554700      9.93637300      0.26627200
H        -3.36374100      9.03908800     -0.66965500
H        -3.38915400      8.98043500      1.10577500
H        -1.15552600      7.77842500      1.08930300
H        -1.13263300      7.83596300     -0.67137200
H        -3.23138800      6.44371800     -0.74344600
H        -3.25100700      6.38405100      1.01789800
H        -1.01213100      5.22274500      1.00216800
H        -0.99321700      5.28375300     -0.75860700
H        -3.09239200      3.89382700     -0.82959200
H        -3.10514600      3.82871300      0.93474000
H        -0.85335200      2.70420800      0.90628200
H        -0.82972900      2.77996100     -0.84457600
H        -0.13211600     -2.34757500     -0.37363200
H         2.92304100     -2.94999700     -1.43514900
H         3.70116800     -2.50936700      0.07778400
H         1.81507900     -3.67288800      1.33522500
H         1.13856700     -4.18819700     -0.20905100
H         3.94682700     -4.90038000      0.80597400
H         3.28983000     -5.38178600     -0.75719200
H         2.09152700     -6.15283500      1.96855700
H         1.43876700     -6.63559200      0.40446600
H         4.23675300     -7.36381400      1.44887000
H         3.58896200     -7.84212800     -0.11826400
H         3.34433100     -9.71134700      1.54252100
H         2.39257700     -8.65678500      2.61366500
H         1.73894800     -9.13772500      1.03331600
H        -4.86406100     -2.67664700     -0.70568500
H        -7.20123100     -3.52019300     -0.72698100
H       -11.23903800     -1.74056200      0.03033100
H        -8.63483900      0.38015900      0.37292600
H        -6.31782800      1.23342500      0.42914900
H        -4.30604800      2.00744400      0.00487800
C         3.80709900      0.29138200     -0.13145500
C         4.18329500      1.32994200      0.73957200
C         4.77086600     -0.29234000     -0.97169100
C         5.51062300      1.77445400      0.77489700
H         3.43403300      1.76712800      1.39675300
C         6.10144700      0.14572200     -0.92961600
H         4.46523300     -1.05243100     -1.68514400
C         6.48640200      1.16577100     -0.03880100
O         5.96082900      2.77307000      1.57314500
O         7.78986600      1.54821800      0.03873800
O         7.09019800     -0.34621100     -1.71456500
C         6.79091400     -1.39599400     -2.60422500
H         6.04731900     -1.09350800     -3.36367200
H         7.73063200     -1.65541400     -3.10938600
H         6.41048100     -2.28700700     -2.07318900
C         8.13771100      2.66622100     -0.76069400
H         7.56682800      3.56336900     -0.46465200
H         9.20882800      2.85467300     -0.60212600
H         7.96388600      2.46024100     -1.83172400
C         5.05155000      3.41256400      2.43849100
H         4.23151400      3.90323200      1.88377400
H         4.61289900      2.70594200      3.16542800
H         5.62244600      4.17613200      2.98303300
