83
CCCCCCc1cc(-c2sc(-c3ccc(C(=O)O)cc3)cc2CCCCCC)sc1-c1cc(OC)cc(OC)c1
C         3.22386100      8.78652800     -0.60859400
C         2.19377200      7.66795300     -0.46046000
C         2.81974000      6.27467500     -0.37878000
C         1.79760900      5.14760100     -0.23243000
C         2.42930800      3.75836600     -0.14411600
C         1.39039700      2.64580700     -0.00269300
C         1.94390000      1.24585700      0.08826100
C         1.15884000      0.09648400      0.20399800
C        -0.27767300     -0.06623200      0.25945800
C        -0.97999300     -1.25622900      0.36956000
C        -2.39659100     -1.11694500      0.40190600
C        -3.34169200     -2.29179300      0.46060800
C        -2.92330800     -3.48611300     -0.40487000
C        -3.95070700     -4.61777600     -0.38858800
C        -3.54971300     -5.82229900     -1.23986100
C        -4.57748800     -6.95509500     -1.22786800
C        -4.16776300     -8.15467600     -2.08066200
C        -2.78697100      0.21367400      0.31660700
S        -1.40432100      1.27330000      0.19954400
S         2.16058500     -1.33690100      0.28800800
C         3.63218100     -0.40707000      0.17113100
C         4.94299200     -1.05074200      0.18573800
C         5.08821900     -2.42075300      0.49389800
C         6.33895100     -3.02389800      0.50890700
C         7.49163600     -2.27830200      0.21912400
C         8.80547000     -2.96806100      0.25005700
O         9.84018900     -2.14988100     -0.04663300
O         8.96695400     -4.13890200      0.50990000
C         7.36303100     -0.91431300     -0.08984400
C         6.11042600     -0.31343300     -0.10870000
C         3.33260600      0.93861000      0.07035800
H         2.74460500      9.77680600     -0.66152000
H         3.92331800      8.79906300      0.24389200
H         3.82451100      8.65673500     -1.52431800
H         1.48762900      7.69813100     -1.30994600
H         1.58271800      7.84325100      0.44335300
H         3.52456800      6.24098800      0.47259900
H         3.43290700      6.09652400     -1.28162900
H         1.09562900      5.17614600     -1.08593900
H         1.18135300      5.32600700      0.66766200
H         3.12378900      3.72933300      0.71373100
H         3.04412400      3.57965400     -1.04376600
H         0.69032200      2.70156400     -0.85571500
H         0.76998000      2.84798300      0.88896700
H        -0.47655500     -2.22223400      0.41498700
H        -3.44682000     -2.63127400      1.50855900
H        -4.34475800     -1.96037000      0.15278900
H        -2.76447100     -3.14267200     -1.44212800
H        -1.95038600     -3.88035400     -0.06404300
H        -4.92521600     -4.23037200     -0.73848500
H        -4.11626400     -4.94587300      0.65444200
H        -3.38184300     -5.49263300     -2.28183300
H        -2.57539500     -6.21011900     -0.88883500
H        -5.54986400     -6.56476300     -1.57891700
H        -4.74449300     -7.28108900     -0.18519800
H        -4.92634700     -8.95272800     -2.05141400
H        -4.02824900     -7.86495700     -3.13554800
H        -3.21529800     -8.58613300     -1.73016200
H         4.20540900     -3.01698100      0.73484400
H         6.44953500     -4.08258600      0.74928100
H        10.64089500     -2.69810800      0.00144700
H         8.25461800     -0.33083300     -0.32107900
H         6.03251100      0.74335100     -0.36711200
H         4.10419000      1.70244100     -0.00089100
C        -4.13197100      0.80757800      0.31459300
C        -4.42611600      1.87160700     -0.55709200
C        -5.11601400      0.32905400      1.19720000
C        -5.70528400      2.44735000     -0.54529100
H        -3.65885300      2.21628000     -1.24732700
C        -6.39588300      0.90549800      1.18911700
H        -4.86094600     -0.45803700      1.90150400
C        -6.69009900      1.96175400      0.32156400
O        -6.07818900      3.47249000     -1.35088000
O        -7.40605000      0.50618700      2.00170800
C        -7.18370200     -0.55828200      2.89704900
H        -6.39496600     -0.31925500      3.63287100
H        -8.12951800     -0.72169800      3.43036400
H        -6.90415900     -1.48790600      2.36928300
C        -5.13434000      4.01986500     -2.24221700
H        -4.25721300      4.43008700     -1.71031600
H        -4.78363400      3.27460300     -2.97862600
H        -5.64246300      4.83469800     -2.77473100
H        -7.68416700      2.40830000      0.32290400
