126
Cc1cccc(N(c2ccc(-c3ccc(N(c4ccc(-c5ccc(-c6ccc(-c7ccc(C(=O)O)cc7)s6)s5)cc4)c4cccc(C)c4)cc3)cc2)c2ccc(-c3ccc(-c4ccc(-c5ccc(C(=O)O)cc5)s4)s3)cc2)c1
C        -0.97971200     13.24021200      3.27367900
C        -1.06151300     12.18586900      2.33343500
C        -0.09186900     11.21129100      2.51294700
C         0.12983800     10.00354800      1.75401000
C         1.00436400      8.96035400      2.00961500
C         0.94752400      7.92605100      1.04352900
C         0.02909700      8.15674300      0.03344300
C        -0.30032400      7.31678000     -1.11538200
C         0.57580900      6.29683300     -1.54045600
C        -1.49691400      7.48402300     -1.84095500
C        -1.80932100      6.67493000     -2.92655500
C        -0.92740000      5.66061000     -3.34223700
C         0.27408300      5.48828000     -2.62873300
N        -1.23689300      4.84105400     -4.44515600
C        -1.91430600      5.38190800     -5.56865600
C        -2.96081300      4.66868200     -6.16987300
C        -3.63415500      5.17152000     -7.29097000
C        -4.74107500      4.37023300     -7.92916400
C        -3.25577500      6.42373100     -7.79610500
C        -2.21970700      7.14514200     -7.19503500
C        -1.54105600      6.63070000     -6.09246800
C        -0.88298100      3.47140600     -4.44039700
C        -0.37094100      2.86105000     -5.59739100
C        -0.03577900      1.51065400     -5.59447400
C        -0.18240500      0.71676900     -4.44093600
C         0.18240500     -0.71676900     -4.44093600
C         0.03577900     -1.51065400     -5.59447400
C         0.37094100     -2.86105000     -5.59739100
C         0.88298100     -3.47140600     -4.44039700
C         1.04252100     -2.68971800     -3.28404400
C         0.69133700     -1.34327100     -3.28721900
N         1.23689300     -4.84105400     -4.44515600
C         0.92740000     -5.66061000     -3.34223700
C         1.80932100     -6.67493000     -2.92655500
C         1.49691400     -7.48402300     -1.84095500
C         0.30032400     -7.31678000     -1.11538200
C        -0.02909700     -8.15674300      0.03344300
C        -0.94752400     -7.92605100      1.04352900
C        -1.00436400     -8.96035400      2.00961500
C        -0.12983800    -10.00354800      1.75401000
C         0.09186900    -11.21129100      2.51294700
S        -0.93774500    -11.62146900      3.86290800
C        -0.04774600    -13.09404700      4.19016900
C        -0.42076900    -13.97559700      5.29318300
C        -1.33377200    -13.56706900      6.28820500
C        -1.68266000    -14.41143700      7.33634000
C        -1.12351500    -15.69524500      7.42600600
C        -0.21316300    -16.11433100      6.44253700
C         0.12983800    -15.27252400      5.39375600
C        -1.45861000    -16.63590000      8.52459500
O        -2.34651300    -16.12512100      9.40645400
O        -1.00167900    -17.74995900      8.64463800
C         0.97971200    -13.24021200      3.27367900
C         1.06151300    -12.18586900      2.33343500
S         0.76544100     -9.69581100      0.28269800
C        -0.57580900     -6.29683300     -1.54045600
C        -0.27408300     -5.48828000     -2.62873300
C         1.91430600     -5.38190800     -5.56865600
C         1.54105600     -6.63070000     -6.09246800
C         2.21970700     -7.14514200     -7.19503500
C         3.25577500     -6.42373100     -7.79610500
C         3.63415500     -5.17152000     -7.29097000
C         2.96081300     -4.66868200     -6.16987300
C         4.74107500     -4.37023300     -7.92916400
C        -0.69133700      1.34327100     -3.28721900
C        -1.04252100      2.68971800     -3.28404400
S        -0.76544100      9.69581100      0.28269800
S         0.93774500     11.62146900      3.86290800
C         0.04774600     13.09404700      4.19016900
C         0.42076900     13.97559700      5.29318300
C         1.33377200     13.56706900      6.28820500
C         1.68266000     14.41143700      7.33634000
C         1.12351500     15.69524500      7.42600600
C         0.21316300     16.11433100      6.44253700
C        -0.12983800     15.27252400      5.39375600
C         1.45861000     16.63590000      8.52459500
O         2.34651300     16.12512100      9.40645400
O         1.00167900     17.74995900      8.64463800
H        -1.67532600     14.07897900      3.29066300
H        -1.81795600     12.12809800      1.54978200
H         1.65677100      8.93881700      2.88381100
H         1.54641800      7.01721200      1.10184600
H         1.52894100      6.15570400     -1.02761200
H        -2.21461300      8.24660600     -1.52912200
H        -2.75059300      6.81864200     -3.45844000
H         0.97871900      4.71798500     -2.94473300
H        -3.24956200      3.70195900     -5.75181100
H        -5.45629900      4.00362700     -7.17571000
H        -5.29788300      4.96616300     -8.66673700
H        -4.33871800      3.48412900     -8.44905400
H        -3.77602900      6.83581200     -8.66428600
H        -1.92870400      8.11751200     -7.60002600
H        -0.72449500      7.18762400     -5.63079700
H        -0.23016400      3.45879100     -6.49924800
H         0.38734300      1.07067000     -6.49981400
H        -0.38734300     -1.07067000     -6.49981400
H         0.23016400     -3.45879100     -6.49924800
H         1.45594100     -3.14516700     -2.38280800
H         0.85374800     -0.75378400     -2.38256300
H         2.75059300     -6.81864200     -3.45844000
H         2.21461300     -8.24660600     -1.52912200
H        -1.54641800     -7.01721200      1.10184600
H        -1.65677100     -8.93881700      2.88381100
H        -1.76781000    -12.56573000      6.24497000
H        -2.38851900    -14.07885400      8.09782700
H         0.21078300    -17.11698100      6.51945400
H         0.82450300    -15.62676000      4.63093400
H        -2.49276400    -16.81507700     10.07472100
H         1.67532600    -14.07897900      3.29066300
H         1.81795600    -12.12809800      1.54978200
H        -1.52894100     -6.15570400     -1.02761200
H        -0.97871900     -4.71798500     -2.94473300
H         0.72449500     -7.18762400     -5.63079700
H         1.92870400     -8.11751200     -7.60002600
H         3.77602900     -6.83581200     -8.66428600
H         3.24956200     -3.70195900     -5.75181100
H         5.29788300     -4.96616300     -8.66673700
H         4.33871800     -3.48412900     -8.44905400
H         5.45629900     -4.00362700     -7.17571000
H        -0.85374800      0.75378400     -2.38256300
H        -1.45594100      3.14516700     -2.38280800
H         1.76781000     12.56573000      6.24497000
H         2.38851900     14.07885400      8.09782700
H        -0.21078300     17.11698100      6.51945400
H        -0.82450300     15.62676000      4.63093400
H         2.49276400     16.81507700     10.07472100
