75
CCCCCCc1cc(-c2sc(-c3ccc(C(=O)O)cc3)cc2CCCCCC)sc1-c1cc(F)cc(F)c1
C         3.25932200      8.70288000     -1.02294200
C         2.18146300      7.64017100     -0.81564700
C         2.74664800      6.22777700     -0.65584600
C         1.67738900      5.15613300     -0.44465500
C         2.24976300      3.74703900     -0.29043600
C         1.16713000      2.69030700     -0.07018900
C         1.66051800      1.27163600      0.06450200
C         0.82878000      0.16033200      0.21888500
C        -0.61297700      0.06034800      0.28007000
C        -1.36778700     -1.10061700      0.35771200
C        -2.77457700     -0.89839200      0.42033200
C        -3.77455800     -2.02853200      0.45482200
C        -3.35059900     -3.28234400     -0.31706500
C        -4.44248900     -4.35151900     -0.35447400
C        -4.03763200     -5.61270000     -1.11706900
C        -5.13130100     -6.68103600     -1.16572700
C        -4.71911600     -7.93613500     -1.93296500
C        -3.10250200      0.45272100      0.38846600
S        -1.67366400      1.45105400      0.28444700
S         1.76857800     -1.31116300      0.34596300
C         3.27648400     -0.44932900      0.18860600
C         4.55949100     -1.14783300      0.21331800
C         4.64997000     -2.51071800      0.56889800
C         5.87429300     -3.16578800      0.59198900
C         7.05342300     -2.48029100      0.26347600
C         8.33766300     -3.22443900      0.30528900
O         9.40211500     -2.46183100     -0.02983900
O         8.45121100     -4.39138200      0.60414900
C         6.97916500     -1.12396600     -0.09249200
C         5.75276000     -0.47124800     -0.11949300
C         3.03444100      0.90442400      0.04829600
H         2.82344500      9.70824500     -1.13391100
H         3.95753500      8.73364100     -0.16990700
H         3.85489900      8.49525200     -1.92757700
H         1.47735300      7.65384700     -1.66713000
H         1.57845500      7.89138800      0.07557800
H         3.45250600      6.21140100      0.19519000
H         3.34824300      5.97248400     -1.54792900
H         0.96936300      5.17190400     -1.29334300
H         1.07804400      5.40709700      0.44955300
H         2.95882700      3.73396600      0.55579100
H         2.83865300      3.49249500     -1.18916800
H         0.44320600      2.74140000     -0.90329300
H         0.58578800      2.95849500      0.83055800
H        -0.90873200     -2.08890700      0.35510200
H        -3.97913300     -2.30989500      1.50495600
H        -4.73484900     -1.66894200      0.05356500
H        -3.07352800     -2.99813000     -1.34739300
H        -2.44108300     -3.71554000      0.13384500
H        -5.35438900     -3.92481100     -0.81098200
H        -4.72484100     -4.62287500      0.67951400
H        -3.74956000     -5.33797300     -2.14863800
H        -3.12815100     -6.04245800     -0.65758200
H        -6.03931100     -6.24800000     -1.62297000
H        -5.41686000     -6.95387400     -0.13365700
H        -5.52644000     -8.68513600     -1.95063200
H        -4.46150900     -7.69780000     -2.97842400
H        -3.83393400     -8.41007700     -1.47677700
H         3.74582800     -3.05981600      0.84081900
H         5.94332200     -4.21902400      0.86892300
H        10.18006700     -3.04097300      0.02899100
H         7.89179200     -0.58775800     -0.35399400
H         5.71647000      0.57796500     -0.41520900
H         3.83759400      1.63126800     -0.05223300
C        -4.41703500      1.10380400      0.42012500
C        -4.65960200      2.25705500     -0.35334300
C        -5.45016500      0.60344800      1.23646600
C        -5.90625100      2.86892400     -0.29964000
H        -3.89398200      2.66807700     -1.01164400
C        -6.68408000      1.24512300      1.24852800
H        -5.29800300     -0.25456500      1.88831700
C        -6.94613800      2.38320800      0.49032400
F        -6.12408200      3.95968400     -1.04444200
F        -7.65534400      0.75907500      2.03174400
H        -7.91884300      2.87360300      0.51620000
