105
CCCCCCc1cc(-c2sc(-c3ccc(C(=O)O)cc3)cc2CCCCCC)sc1-c1ccc(N(c2ccc(OC)cc2)c2ccc(OC)cc2)cc1
C         3.55395900     -9.13402800      0.08850100
C         2.81584700     -7.79643400      0.07937900
C         3.75172400     -6.58681400      0.05873700
C         3.02168800     -5.24397100      0.04832100
C         3.96034900     -4.03788800      0.02209200
C         3.20961500     -2.70605600      0.01331700
C         4.07511600     -1.47217500     -0.04575900
C         3.58109700     -0.17191600     -0.17133000
C         2.22405200      0.31931200     -0.27203300
C         1.82316800      1.61941400     -0.53589300
C         0.41426100      1.82367400     -0.54520000
C        -0.22432500      3.17459400     -0.75327000
C         0.48307100      4.32518500     -0.02735100
C        -0.23047500      5.66565400     -0.20105800
C         0.46243400      6.82570300      0.51360400
C        -0.24680200      8.16966600      0.33911400
C         0.45210100      9.32200300      1.05870300
C        -0.28241100      0.64871900     -0.28849700
S         0.81166400     -0.69112100     -0.04047600
S         4.88904800      0.99164500     -0.20610600
C         6.10210200     -0.25532100     -0.07105700
C         7.52589600      0.06707700     -0.05022600
C         7.99597300      1.35200600     -0.39875800
C         9.35216300      1.64935000     -0.37839400
C        10.28954800      0.67114400     -0.01314400
C        11.72756100      1.03718700     -0.00994700
O        12.53357300      0.01591700      0.35901000
O        12.16602400      2.12680300     -0.30204000
C         9.83693000     -0.61190500      0.33582500
C         8.47917500     -0.90621000      0.32076000
C         5.49637800     -1.49534900      0.00873700
H         2.85433700     -9.98463800      0.10361000
H         4.19286400     -9.24307300     -0.80377800
H         4.20705000     -9.22316000      0.97269100
H         2.15764400     -7.72958600      0.96449400
H         2.14441000     -7.74888200     -0.79696000
H         4.41102300     -6.65074500     -0.82680000
H         4.42429900     -6.63062200      0.93549500
H         2.36488600     -5.17669500      0.93494900
H         2.34747400     -5.20026800     -0.82650300
H         4.61142700     -4.10112000     -0.86757800
H         4.63177700     -4.08151300      0.89764600
H         2.56604900     -2.65436300      0.91047400
H         2.50904700     -2.69591500     -0.84040300
H         2.54150200      2.42051500     -0.71253000
H        -0.26390900      3.40611900     -1.83448700
H        -1.27195300      3.13233400     -0.41900400
H         0.56084700      4.08079200      1.04661800
H         1.52067000      4.42145600     -0.39108000
H        -1.26916100      5.57716500      0.16702100
H        -0.31435900      5.89738600     -1.27900100
H         0.54427900      6.59348800      1.59158100
H         1.50228100      6.91189300      0.14731600
H        -1.28616600      8.08021300      0.70370700
H        -0.32663300      8.39927800     -0.73889000
H        -0.08010800     10.27538700      0.91331100
H         0.51329000      9.13578100      2.14399200
H         1.48297200      9.45539200      0.69029000
H         7.28400100      2.12287100     -0.70160800
H         9.71405700      2.64238200     -0.64996800
H        13.44058400      0.36261200      0.32655900
H        10.56021800     -1.37445000      0.62610800
H         8.14759400     -1.90283700      0.61511500
H         6.06920200     -2.41752400      0.08380000
C        -1.72743000      0.40583300     -0.21582900
C        -2.27848500     -0.43175800      0.77486200
C        -2.61982000      0.97940000     -1.14324500
C        -3.64446500     -0.67843100      0.84389200
H        -1.61647100     -0.89576900      1.50965800
C        -3.99033500      0.75392300     -1.07012100
H        -2.22955900      1.60513700     -1.94720900
C        -4.53179900     -0.08114400     -0.07336100
H        -4.03813900     -1.33429800      1.62109200
H        -4.65470700      1.21966400     -1.79878600
N        -5.91473200     -0.31504600      0.00233100
C        -6.54598700     -0.53969100      1.25365900
C        -7.48491500     -1.57665400      1.40117000
C        -6.26630000      0.27075600      2.36033200
C        -8.12292500     -1.78884200      2.61635400
H        -7.71413300     -2.21391100      0.54539900
C        -6.88675100      0.04903400      3.59284500
H        -5.54624200      1.08466500      2.25909900
C        -7.82703300     -0.98275600      3.72881900
H        -8.85404000     -2.59022500      2.73747100
H        -6.63839200      0.69759100      4.43248800
C        -6.71331000     -0.32129500     -1.17159100
C        -7.93213800      0.37951000     -1.20777600
C        -6.31757400     -1.03425100     -2.30924400
C        -8.72732800      0.36109300     -2.34623500
H        -8.25298500      0.93707500     -0.32621800
C        -7.10098500     -1.03950500     -3.46660000
H        -5.37753300     -1.58858300     -2.29190100
C        -8.31881800     -0.34402200     -3.49126500
H        -9.67562100      0.90043300     -2.38150300
H        -6.75682500     -1.60170400     -4.33422900
O        -8.49146000     -1.27336000      4.87666200
O        -9.15665000     -0.29572200     -4.55845500
C        -8.24300000     -0.49303700      6.02160500
H        -8.50235300      0.56912000      5.85967000
H        -8.87785600     -0.89637900      6.82166100
H        -7.18584400     -0.55290900      6.33880300
C        -8.80559400     -0.99239100     -5.73027300
H        -8.71235500     -2.07884200     -5.55015000
H        -9.61367000     -0.81962500     -6.45344000
H        -7.85613200     -0.62362800     -6.15950900
