75
CCCCCCc1cc(-c2sc(-c3ccc(C(=O)O)cc3)cc2CCCCCC)sc1-c1cc(F)c(F)c(F)c1
C         2.92443800      8.89460900     -0.60155300
C         1.91527700      7.75572200     -0.46484400
C         2.56742900      6.37418300     -0.38929800
C         1.56593300      5.22741300     -0.25339200
C         2.22318400      3.84976100     -0.17106800
C         1.20434700      2.71756100     -0.03823700
C         1.78256900      1.32762700      0.04880000
C         1.01873200      0.16372500      0.16040100
C        -0.41435200     -0.02512300      0.21275200
C        -1.09466800     -1.22920100      0.31742800
C        -2.51221300     -1.11755800      0.34908000
C        -3.43879600     -2.30776100      0.41461000
C        -2.88135500     -3.59266100     -0.20558800
C        -3.89682400     -4.73503000     -0.21310000
C        -3.34908300     -6.03399000     -0.80449500
C        -4.36176300     -7.18012000     -0.81852800
C        -3.80214400     -8.47461600     -1.40626100
C        -2.92606600      0.20770700      0.26447600
S        -1.56243300      1.29324400      0.15514200
S         2.04532300     -1.25208200      0.24180900
C         3.49891700     -0.29549400      0.12933800
C         4.82137800     -0.91645800      0.14319900
C         4.99290700     -2.27667500      0.47853200
C         6.25425400     -2.85763000      0.49255100
C         7.39007500     -2.09788700      0.17499600
C         8.71675600     -2.76433500      0.20605000
O         9.73300700     -1.93462900     -0.11878500
O         8.90023200     -3.92640400      0.48846800
C         7.23493800     -0.74334800     -0.16113800
C         5.97158900     -0.16484400     -0.17946300
C         3.17651700      1.04513600      0.03166400
H         2.42634800      9.87571300     -0.65031500
H         3.61997100      8.91519500      0.25399200
H         3.53121500      8.78239000     -1.51557200
H         1.21205900      7.77777000     -1.31689800
H         1.29747900      7.91360600      0.43757700
H         3.26984700      6.34850200      0.46435900
H         3.18678700      6.21311400     -1.29114000
H         0.86639900      5.24812000     -1.10901800
H         0.94362400      5.38890000      0.64575100
H         2.91587600      3.82832200      0.68840700
H         2.84297700      3.68709600     -1.07028500
H         0.50652800      2.76435000     -0.89375800
H         0.57786500      2.90440700      0.85263000
H        -0.57212300     -2.18430800      0.35849000
H        -3.70396800     -2.51260100      1.46889000
H        -4.38784800     -2.05043700     -0.08238500
H        -2.54704800     -3.38509000     -1.23720400
H        -1.98249900     -3.91753400      0.34631500
H        -4.79343200     -4.42368200     -0.77981500
H        -4.24544500     -4.92152900      0.81946600
H        -2.99639200     -5.84516500     -1.83528500
H        -2.45374500     -6.34495500     -0.23483100
H        -5.25416000     -6.86751400     -1.39033200
H        -4.71558600     -7.36306200      0.21223800
H        -4.55293600     -9.28044600     -1.40384400
H        -3.47139600     -8.32917200     -2.44818200
H        -2.93018400     -8.82861500     -0.83136900
H         4.12324900     -2.88227400      0.74289300
H         6.38637300     -3.90878800      0.75405700
H        10.54453700     -2.46661100     -0.06857700
H         8.11376500     -0.14992900     -0.41470900
H         5.87149600      0.88409100     -0.46121300
H         3.93491200      1.82241000     -0.03483700
C        -4.27988200      0.77178200      0.24960400
C        -4.57765200      1.89273300     -0.55156600
C        -5.30320700      0.22320200      1.04685000
C        -5.85565600      2.43512700     -0.54951200
H        -3.82441100      2.34253100     -1.19913700
C        -6.57822700      0.77482800      1.02357600
H        -5.11882600     -0.61200600      1.71972000
C        -6.87677900      1.88482300      0.23014800
F        -6.13947100      3.49216100     -1.31205500
F        -8.10025000      2.40680900      0.21893800
F        -7.54660200      0.25743200      1.78191400
