97
CCCCCCc1cc(-c2sc(-c3ccc(C(=O)O)cc3)cc2CCCCCC)sc1-c1ccc(N(c2ccccc2)c2ccccc2)cc1
C        -2.95961200     -9.12057900     -0.28830500
C        -2.19914300     -7.79597600     -0.25434800
C        -3.11471800     -6.57144300     -0.21141400
C        -2.36195700     -5.24165100     -0.17555700
C        -3.27959200     -4.02020000     -0.12520800
C        -2.50494500     -2.70256000     -0.08930600
C        -3.34725500     -1.45429700     -0.00546400
C        -2.82889600     -0.16537100      0.13685100
C        -1.46228600      0.29925200      0.23596500
C        -1.03601500      1.59081400      0.50228600
C         0.37663700      1.76645900      0.51651800
C         1.04174800      3.10361500      0.73114600
C         0.34898600      4.27450200      0.02405000
C         1.08894500      5.59967500      0.20437000
C         0.40998800      6.77934700     -0.49132600
C         1.14401700      8.10883900     -0.30902400
C         0.45861400      9.28069100     -1.00981500
C         1.04922900      0.57762400      0.25993600
S        -0.07078900     -0.73907800      0.00502000
S        -4.11502200      1.02094700      0.20017200
C        -5.35113200     -0.20143900      0.05348100
C        -6.76909200      0.14754400      0.04906800
C        -7.21276700      1.43226300      0.43072600
C        -8.56339200      1.75474500      0.42703000
C        -9.52084600      0.80249200      0.04582900
C       -10.95214200      1.19478700      0.06189000
O       -11.77918400      0.19723800     -0.32429200
O       -11.36787500      2.28522200      0.38234900
C        -9.09447600     -0.47995600     -0.33636900
C        -7.74218500     -0.79931500     -0.33792900
C        -4.76911300     -1.45090100     -0.05042600
H        -2.27438700     -9.98234600     -0.32026000
H        -3.59974500     -9.23589200      0.60229600
H        -3.61459000     -9.18171900     -1.17347500
H        -1.53961900     -7.72380400     -1.13806100
H        -1.52740000     -7.77571600      0.62278300
H        -3.77539400     -6.64076600      0.67268300
H        -3.78740900     -6.58751900     -1.08899200
H        -1.70432900     -5.16850200     -1.06111700
H        -1.68695900     -5.22640000      0.69960500
H        -3.93166900     -4.08999400      0.76319900
H        -3.95153000     -4.03390400     -1.00132500
H        -1.85979700     -2.64431800     -0.98494300
H        -1.80523600     -2.72282400      0.76500200
H        -1.73861900      2.40572800      0.67820600
H         1.09560800      3.32304000      1.81425200
H         2.08537900      3.04597500      0.38660700
H         0.25580000      4.04283900     -1.05149400
H        -0.68279300      4.38652400      0.39953500
H         2.12212200      5.49630400     -0.17518300
H         1.18768700      5.81858700      1.28372700
H         0.31423700      6.56022300     -1.57087500
H        -0.62479400      6.87949500     -0.11437400
H         2.17833600      8.00551500     -0.68414800
H         1.23749700      8.32539500      0.77058500
H         1.00863900     10.22306900     -0.85925200
H         0.38431900      9.10728000     -2.09639100
H        -0.56634600      9.42789200     -0.63034200
H        -6.48470800      2.18252400      0.74679400
H        -8.90514600      2.74749800      0.72446100
H       -12.67963600      0.55909100     -0.27720800
H        -9.83366700     -1.22204200     -0.63930300
H        -7.43081600     -1.79454300     -0.65809100
H        -5.35901600     -2.36129200     -0.13580900
C         2.48923900      0.30350200      0.19348900
C         3.02325800     -0.55267900     -0.79060800
C         3.38883800      0.86258600      1.12289800
C         4.38343700     -0.83502700     -0.84777700
H         2.35365700     -1.00334200     -1.52658000
C         4.75422900      0.60348800      1.05688000
H         3.00890100      1.50147300      1.92112300
C         5.27529600     -0.25318700      0.07114200
H         4.76802000     -1.50598100     -1.61698900
H         5.42869000      1.05597200      1.78513500
N         6.65820900     -0.52793200      0.00920200
C         7.30229400     -0.66440500     -1.24520300
C         8.25313000     -1.67855600     -1.44960000
C         7.00233500      0.21300700     -2.30103300
C         8.89328500     -1.80407100     -2.68250100
H         8.48628400     -2.36471200     -0.63399100
C         7.63394200      0.06857300     -3.53626200
H         6.26991500      1.00671800     -2.14552600
C         8.58572700     -0.93641800     -3.73494100
H         9.63049900     -2.59805000     -2.82515700
H         7.38892600      0.75877100     -4.34731500
H         9.08355900     -1.04211300     -4.70120600
C         7.40665400     -0.68467100      1.20212500
C         8.68870400     -0.12117200      1.31580200
C         6.88000400     -1.40866000      2.28509600
C         9.42835600     -0.28762200      2.48660300
H         9.09942800      0.44487800      0.47832400
C         7.61953900     -1.55516200      3.45862400
H         5.88744800     -1.85352500      2.19917200
C         8.89857900     -1.00043900      3.56666000
H        10.42430600      0.15623900      2.55922100
H         7.19599300     -2.12107400      4.29201800
H         9.47766700     -1.12300500      4.48444300
