95
CCCCCCc1cc(-c2sc(-c3ccc(C(=O)O)cc3)cc2CCCCCC)sc1-c1ccc(-n2c3ccccc3c3ccccc32)cc1
C         2.95768100     -9.11625000      0.60365500
C         2.20368700     -7.79056100      0.51428200
C         3.12546600     -6.57264300      0.43282200
C         2.37932200     -5.24182000      0.34112700
C         3.30327300     -4.02736000      0.25163200
C         2.53502600     -2.70871900      0.15935300
C         3.38294400     -1.46738300      0.03929500
C         2.87092000     -0.18040500     -0.13803900
C         1.50621900      0.28818900     -0.24628000
C         1.08596800      1.57939300     -0.52455700
C        -0.32588100      1.75835600     -0.55381400
C        -0.98450800      3.09627500     -0.78407900
C        -0.28672500      4.27266600     -0.09122400
C        -1.02372800      5.59752900     -0.28558500
C        -0.34126100      6.78301500      0.39663000
C        -1.07274300      8.11193300      0.20032700
C        -0.38462900      9.28973700      0.88829100
C        -1.00220500      0.57227000     -0.29495500
S         0.11137100     -0.74508100     -0.01879200
S         4.16225200      0.99761200     -0.23674200
C         5.39205900     -0.22570300     -0.05536100
C         6.81196700      0.11737800     -0.05981900
C         7.26111400      1.38775900     -0.48022700
C         8.61319700      1.70445600     -0.48473300
C         9.56570600      0.76012900     -0.07308500
C        10.99918200      1.14580400     -0.09916700
O        11.82088800      0.15722000      0.31894100
O        11.41921000      2.22409800     -0.45271000
C         9.13371900     -0.50804700      0.34786900
C         7.77993300     -0.82146300      0.35741600
C         4.80490600     -1.46928600      0.08335700
H         2.26817000     -9.97305900      0.66330900
H         3.60337800     -9.26810600     -0.27739400
H         3.60621400     -9.14672500      1.49514000
H         1.53784500     -7.68255400      1.38956600
H         1.53878000     -7.79999200     -0.36818700
H         3.79254900     -6.67801400     -0.44286900
H         3.79124300     -6.55876900      1.31567300
H         1.71566500     -5.13231800      1.21842300
H         1.71089800     -5.25653600     -0.53906000
H         3.96153400     -4.13404200     -0.62845200
H         3.96840400     -4.01030100      1.13283300
H         1.88090400     -2.61492400      1.04544700
H         1.84441000     -2.75769900     -0.70129900
H         1.79197300      2.39149300     -0.69886400
H        -1.03632000      3.30222700     -1.86986100
H        -2.02866300      3.04896800     -0.43953700
H        -0.19252000      4.05300900      0.98671200
H         0.74455800      4.37743700     -0.46999700
H        -2.05671000      5.50085500      0.09612800
H        -1.12286300      5.80474300     -1.36719500
H        -0.24525200      6.57540200      1.47841000
H         0.69340300      6.87670600      0.01771300
H        -2.10704200      8.01463800      0.57700100
H        -1.16620700      8.31703300     -0.88150900
H        -0.93281200     10.23146700      0.72761500
H        -0.31058700      9.12796200      1.97666100
H         0.64052700      9.43076000      0.50701300
H         6.53673500      2.13107600     -0.82027700
H         8.95971900      2.68603400     -0.81218200
H        12.72335100      0.51276700      0.26238500
H         9.86941600     -1.24345800      0.67458000
H         7.46378100     -1.80497200      0.70768800
H         5.39084100     -2.37940000      0.19417600
C        -2.44428900      0.30454900     -0.23345600
C        -2.98206100     -0.54507800      0.75419100
C        -3.33413600      0.86967800     -1.16833400
C        -4.34615600     -0.81591500      0.80932300
H        -2.31516500     -0.99618600      1.49196000
C        -4.70356600      0.62477500     -1.09957500
H        -2.94496600      1.50043400     -1.96811200
C        -5.22214400     -0.22312900     -0.11124500
H        -4.74354200     -1.49011000      1.56958000
H        -5.38168100      1.08956900     -1.81693700
N        -6.61094300     -0.47987500     -0.04384100
C        -7.41736100     -0.30641000      1.08551000
C        -8.75356700     -0.66471600      0.75641400
C        -7.07994900      0.16897000      2.35738800
C        -9.75673100     -0.56168400      1.72894500
C        -8.09814800      0.26200000      3.30726300
H        -6.05816100      0.46316000      2.59933400
C        -9.42267000     -0.10254300      3.00230000
H       -10.78698800     -0.83496700      1.48902700
H        -7.85899200      0.62898000      4.30824900
H       -10.19466300     -0.01926900      3.77035300
C        -7.40753300     -0.94520700     -1.09486300
C        -8.74723100     -1.07314000     -0.63518800
C        -7.04567100     -1.29601800     -2.40002900
C        -9.73684700     -1.54044800     -1.50980300
C        -8.05061900     -1.75931700     -3.25037500
H        -6.01315500     -1.21792100     -2.74203700
C        -9.38387200     -1.87733500     -2.81585500
H       -10.76984200     -1.64246400     -1.16898600
H        -7.79288200     -2.03885200     -4.27472000
H       -10.14577200     -2.24169000     -3.50837200
