198
CCCCCCc1cc(-c2sc(-c3ccc(C(=O)O)cc3)cc2CCCCCC)sc1-c1ccc(N(c2ccc(-c3ccc(N(c4ccc(-c5sc(-c6sc(-c7ccc(C(=O)O)cc7)cc6CCCCCC)cc5CCCCCC)cc4)c4cccc(C)c4)cc3)cc2)c2cccc(C)c2)cc1
C        -1.46209200     11.13441300      4.42494500
C        -1.51975900     10.34830500      3.24108100
C        -0.26144100     10.20176700      2.65254900
C         0.14718800      9.50088900      1.45511600
C         1.42621300      9.42740600      0.92511600
C         1.53781800      8.66692100     -0.27254700
C         0.31290000      8.14165500     -0.66896200
C        -0.02530100      7.31009300     -1.82890600
C         0.81806500      6.26554000     -2.25796000
C        -1.22312100      7.51097000     -2.54496300
C        -1.56200500      6.71471700     -3.63293000
C        -0.70187700      5.68937300     -4.06556100
C         0.49628900      5.48007900     -3.36022200
N        -1.03552500      4.88862000     -5.17872100
C        -1.67818200      5.46663700     -6.30276200
C        -2.73565200      4.79544000     -6.93403400
C        -3.37703900      5.33869600     -8.05458000
C        -4.49021400      4.57930600     -8.73204400
C        -2.95711500      6.58995300     -8.52898700
C        -1.91069400      7.26953300     -7.89863600
C        -1.26289600      6.71433200     -6.79707700
C        -0.74057700      3.50568600     -5.17526000
C        -0.25404600      2.87383600     -6.33213800
C         0.02530100      1.51087700     -6.32919500
C        -0.15288800      0.72358700     -5.17549900
C         0.15288800     -0.72358700     -5.17549900
C        -0.02530100     -1.51087700     -6.32919500
C         0.25404600     -2.87383600     -6.33213800
C         0.74057700     -3.50568600     -5.17526000
C         0.93097100     -2.73070700     -4.01885400
C         0.63471600     -1.37114200     -4.02191400
N         1.03552500     -4.88862000     -5.17872100
C         0.70187700     -5.68937300     -4.06556100
C         1.56200500     -6.71471700     -3.63293000
C         1.22312100     -7.51097000     -2.54496300
C         0.02530100     -7.31009300     -1.82890600
C        -0.31290000     -8.14165500     -0.66896200
C        -1.53781800     -8.66692100     -0.27254700
C        -1.42621300     -9.42740600      0.92511600
C        -0.14718800     -9.50088900      1.45511600
C         0.26144100    -10.20176700      2.65254900
S        -0.96292600    -11.04005800      3.58237800
C         0.20083200    -11.58977900      4.76071900
C        -0.19872600    -12.40944400      5.90114000
C        -1.55780400    -12.62872300      6.21065600
C        -1.93271700    -13.40879700      7.29857200
C        -0.95631500    -13.99489400      8.11855300
C         0.40014300    -13.78473200      7.82214400
C         0.77271300    -13.00936700      6.73316100
C        -1.30053100    -14.83458800      9.29277700
O        -2.63336200    -14.96630000      9.47773100
O        -0.49546700    -15.36048400     10.02769000
C         1.46209200    -11.13441300      4.42494500
C         1.51975900    -10.34830500      3.24108100
S         0.95631600     -8.59146100      0.44388000
C        -0.81806500     -6.26554000     -2.25796000
C        -0.49628900     -5.48007900     -3.36022200
C         1.67818200     -5.46663700     -6.30276200
C         1.26289600     -6.71433200     -6.79707700
C         1.91069400     -7.26953300     -7.89863600
C         2.95711500     -6.58995300     -8.52898700
C         3.37703900     -5.33869600     -8.05458000
C         2.73565200     -4.79544000     -6.93403400
C         4.49021400     -4.57930600     -8.73204400
C        -0.63471600      1.37114200     -4.02191400
C        -0.93097100      2.73070700     -4.01885400
S        -0.95631600      8.59146100      0.44388000
S         0.96292600     11.04005800      3.58237800
C        -0.20083200     11.58977900      4.76071900
C         0.19872600     12.40944400      5.90114000
C         1.55780400     12.62872300      6.21065600
C         1.93271700     13.40879700      7.29857200
C         0.95631500     13.99489400      8.11855300
C        -0.40014300     13.78473200      7.82214400
C        -0.77271300     13.00936700      6.73316100
C         1.30053100     14.83458800      9.29277700
O         2.63336200     14.96630000      9.47773100
O         0.49546700     15.36048400     10.02769000
H        -2.33886700     11.35097200      5.03170100
H         2.27312600      9.93207300      1.39014500
H         1.73647500      6.05542700     -1.70892200
H        -1.89938700      8.31263900     -2.23986500
H        -2.49756400      6.88968300     -4.16576700
H         1.17153700      4.68351600     -3.67554700
H        -3.05896000      3.82994100     -6.53944700
H        -5.17008800      4.12081600     -7.99705800
H        -5.08428900      5.23255400     -9.38777400
H        -4.08773300      3.76114700     -9.35392600
H        -3.45293700      7.03395000     -9.39572100
H        -1.58731800      8.24174200     -8.27874300
H        -0.43874000      7.23939000     -6.31221600
H        -0.08831000      3.46473700     -7.23421400
H         0.42959000      1.05389800     -7.23473100
H        -0.42959000     -1.05389800     -7.23473100
H         0.08831000     -3.46473700     -7.23421400
H         1.32399600     -3.20225900     -3.11684900
H         0.82050000     -0.78955500     -3.11666100
H         2.49756400     -6.88968300     -4.16576700
H         1.89938700     -8.31263900     -2.23986500
H        -2.27312600     -9.93207300      1.39014500
H        -2.33288700    -12.17104200      5.59206300
H        -2.98784000    -13.56622800      7.52361200
H         1.15075400    -14.24941200      8.46368400
H         1.83242700    -12.87354700      6.51376400
H        -2.74322900    -15.52754200     10.26314000
H         2.33886700    -11.35097200      5.03170100
H        -1.73647500     -6.05542700     -1.70892200
H        -1.17153700     -4.68351600     -3.67554700
H         0.43874000     -7.23939000     -6.31221600
H         1.58731800     -8.24174200     -8.27874300
H         3.45293700     -7.03395000     -9.39572100
H         3.05896000     -3.82994100     -6.53944700
H         5.08428900     -5.23255400     -9.38777400
H         4.08773300     -3.76114700     -9.35392600
H         5.17008800     -4.12081600     -7.99705800
H        -0.82050000      0.78955500     -3.11666100
H        -1.32399600      3.20225900     -3.11684900
H         2.33288700     12.17104200      5.59206300
H         2.98784000     13.56622800      7.52361200
H        -1.15075400     14.24941200      8.46368400
H        -1.83242700     12.87354700      6.51376400
H         2.74322900     15.52754200     10.26314000
C         2.82772000      8.51036200     -1.04017200
H         3.39854700      7.65166700     -0.63892500
H         2.59326200      8.24776200     -2.08350500
C        -2.78822600      9.74526400      2.69191700
H        -2.93006500     10.09022100      1.65182400
H        -2.66359500      8.65008400      2.61465600
C        -2.82772000     -8.51036200     -1.04017200
H        -3.39854700     -7.65166700     -0.63892500
H        -2.59326200     -8.24776200     -2.08350500
C         2.78822600     -9.74526400      2.69191700
H         2.93006500    -10.09022100      1.65182400
H         2.66359500     -8.65008400      2.61465600
C        -4.05962400     10.04157600      3.48749600
H        -3.94249300      9.67879000      4.52377900
H        -4.20716200     11.13357100      3.55879400
C        -5.30339100      9.40395400      2.86844200
H        -5.41916800      9.76383700      1.82965800
H        -5.15311500      8.31155800      2.79107800
C        -6.58756000      9.68498800      3.64825000
H        -6.73624600     10.77804500      3.72576700
H        -6.47027100      9.32500400      4.68724200
C        -7.83421100      9.04856900      3.03137700
H        -7.94820800      9.40935200      1.99312000
H        -7.68202500      7.95681500      2.95386400
C        -9.11266300      9.33421600      3.81747400
H        -9.30809900     10.41773500      3.88092200
H        -9.99174200      8.86361900      3.34954700
H        -9.03962500      8.95292600      4.84970300
C         4.05962400    -10.04157600      3.48749600
H         3.94249300     -9.67879000      4.52377900
H         4.20716200    -11.13357100      3.55879400
C         5.30339100     -9.40395400      2.86844200
H         5.41916800     -9.76383700      1.82965800
H         5.15311500     -8.31155800      2.79107800
C         6.58756000     -9.68498800      3.64825000
H         6.73624600    -10.77804500      3.72576700
H         6.47027100     -9.32500400      4.68724200
C         7.83421100     -9.04856900      3.03137700
H         7.94820800     -9.40935200      1.99312000
H         7.68202500     -7.95681500      2.95386400
C         9.11266300     -9.33421600      3.81747400
H         9.30809900    -10.41773500      3.88092200
H         9.99174200     -8.86361900      3.34954700
H         9.03962500     -8.95292600      4.84970300
C         3.73021000      9.74896300     -1.02835500
H         3.14974100     10.62426000     -1.36911100
H         4.04515000      9.97765500      0.00448900
C         4.97480900      9.58506100     -1.90048900
H         5.54195000      8.69707200     -1.56506500
H         4.66640100      9.36760500     -2.93961100
C         5.89392900     10.80635700     -1.89025500
H         6.20279900     11.02240700     -0.85060000
H         5.32468700     11.69402400     -2.22290400
C         7.13945500     10.64860000     -2.76405200
H         7.70547400      9.76009700     -2.43023100
H         6.82799800     10.43243100     -3.80205500
C         8.05112800     11.87440400     -2.74645900
H         8.40538700     12.09311300     -1.72522700
H         8.93808700     11.73132600     -3.38371500
H         7.52071200     12.77089200     -3.10864300
C        -3.73021000     -9.74896300     -1.02835500
H        -3.14974100    -10.62426000     -1.36911100
H        -4.04515000     -9.97765500      0.00448900
C        -4.97480900     -9.58506100     -1.90048900
H        -5.54195000     -8.69707200     -1.56506500
H        -4.66640100     -9.36760500     -2.93961100
C        -5.89392900    -10.80635700     -1.89025500
H        -6.20279900    -11.02240700     -0.85060000
H        -5.32468700    -11.69402400     -2.22290400
C        -7.13945500    -10.64860000     -2.76405200
H        -7.70547400     -9.76009700     -2.43023100
H        -6.82799800    -10.43243100     -3.80205500
C        -8.05112800    -11.87440400     -2.74645900
H        -8.40538700    -12.09311300     -1.72522700
H        -8.93808700    -11.73132600     -3.38371500
H        -7.52071200    -12.77089200     -3.10864300
