81
COc1ccc(-c2ccc3c(c2)c2cc(-c4ccc(OC)cc4OC)ccc2n3-c2ccc(-c3ccc(C(=O)O)cc3)cc2)c(OC)c1
O         6.41993500      6.73342800     -0.80304400
C         6.45866500      7.95294300     -0.10288000
C         5.36173400      5.90111500     -0.62633800
C         5.38115300      4.70115800     -1.34728100
C         4.32324100      3.80854900     -1.21110400
C         3.22195600      4.05469500     -0.37412800
C         3.22347800      5.27253700      0.34534600
C         4.28102900      6.18739100      0.22091600
O         2.16509100      5.49801500      1.16792100
C         2.13171900      6.65505600      1.96598400
C         2.13850000      3.04728600     -0.24625800
C         0.77203800      3.41912800     -0.26071800
C        -0.25518500      2.48101000     -0.19259700
C         0.09048500      1.12829600     -0.10956600
C         1.45060400      0.72455300     -0.07165200
C         2.46296900      1.68637800     -0.14316000
C         1.45599800     -0.72005300      0.07223300
C         2.47544200     -1.67453500      0.14194600
C         2.16096000     -3.03770300      0.24599200
C         0.79723200     -3.41939700      0.26311900
C        -0.23685700     -2.48876500      0.19667500
C         0.09894400     -1.13362100      0.11279700
N        -0.72397200     -0.00560700      0.00238700
C        -2.13393700     -0.01090600      0.00342700
C        -2.84214900     -0.68551200      1.00918600
C        -4.23422600     -0.69684200      1.00038400
C        -4.96502600     -0.02247500      0.00495800
C        -4.24082800      0.65784500     -0.99124100
C        -2.84870800      0.65804100     -1.00149400
C       -10.75583300     -0.09806700      0.02885400
O       -11.40533000     -1.04863100      0.39994700
O       -11.33509200      1.03835700     -0.41648500
C         3.25177700     -4.03735400      0.37223700
C         4.35287300     -3.78316000      1.20703900
C         5.41706100     -4.66848600      1.34186800
C         5.40446700     -5.86902900      0.62174400
C         4.32423400     -6.16316700     -0.22341500
C         3.26030300     -5.25559400     -0.34655200
O         2.20199600     -5.48871700     -1.16703700
C         2.17487800     -6.64643600     -1.96438800
O         6.46854100     -6.69407700      0.79716900
C         6.51432300     -7.91380800      0.09778400
H         7.39056500      8.45482800     -0.39555200
H         5.60515300      8.60540600     -0.36314000
H         6.46471000      7.79966100      0.99176700
H         6.22363200      4.49636300     -2.00891300
H         4.33383900      2.88260900     -1.79002800
H         4.26291100      7.11352400      0.78781300
H         1.20681700      6.60053500      2.55546200
H         2.99348000      6.70338000      2.65580000
H         2.11312300      7.57731600      1.35718000
H         0.51741500      4.47598400     -0.33006300
H        -1.29761500      2.80113400     -0.20067100
H         3.50986400      1.37934200     -0.09470500
H         3.52000200     -1.35997900      0.09146600
H         0.55040100     -4.47803300      0.33323400
H        -1.27690900     -2.81645400      0.20672000
H        -2.29230800     -1.18204900      1.80979900
H        -4.76537700     -1.20560200      1.80704500
H        -4.77699900      1.16182000     -1.79761800
H        -2.30371100      1.15884700     -1.80276800
H       -12.29444300      0.89433600     -0.36093300
H         4.35817600     -2.85683700      1.78542800
H         6.25927500     -4.45759600      2.00192100
H         4.31139300     -7.08982000     -0.78961300
H         1.24860700     -6.59836400     -2.55226700
H         3.03576000     -6.68944300     -2.65565200
H         2.16339300     -7.56843400     -1.35502500
H         7.45014100     -8.40911700      0.38915200
H         5.66575900     -8.57190600      0.36002100
H         6.51738200     -7.76126900     -0.99697900
C        -6.44602500     -0.02907400      0.00594100
C        -7.17570900      1.09236300     -0.43316100
C        -7.16527900     -1.15764300      0.44661900
C        -8.56778800      1.08972500     -0.43413800
H        -6.64250900      1.98924500     -0.75381600
C        -8.55569900     -1.16456700      0.44874000
H        -6.62394000     -2.04989500      0.76649200
C        -9.27046300     -0.04101800      0.00816800
H        -9.12031100      1.96797300     -0.76912600
H        -9.11510900     -2.04038800      0.78175900
