71
COc1ccc(-c2ccc3c(c2)c2cc(-c4ccc(OC)cc4OC)ccc2n3-c2ccc(C(=O)O)cc2)c(OC)c1
O         6.73741600     -4.99832600     -0.80731800
C         7.96128600     -5.03101000     -0.11424900
C         5.90454200     -3.94063800     -0.63192100
C         4.70090400     -3.96572600     -1.34670300
C         3.80741000     -2.90856400     -1.21157200
C         4.05631800     -1.80246500     -0.38172800
C         5.27775900     -1.79819100      0.33168200
C         6.19348500     -2.85506100      0.20815700
O         5.50568800     -0.73526300      1.14740800
C         6.66832300     -0.69414800      1.93727400
C         3.04820000     -0.71962700     -0.25536600
C         3.41789000      0.64706700     -0.27482200
C         2.47858400      1.67355900     -0.20912400
C         1.12617700      1.32710600     -0.12505100
C         0.72548600     -0.03298700     -0.07910200
C         1.68780900     -1.04480400     -0.14785900
C        -0.71852400     -0.04228500      0.07102400
C        -1.66724600     -1.06645700      0.14579900
C        -3.03186300     -0.75885400      0.25148200
C        -3.41993100      0.60278000      0.26288000
C        -2.49441400      1.64131800      0.19120100
C        -1.13744000      1.31256800      0.10915400
N        -0.01118700      2.14034600     -0.01028600
C        -0.02062800      3.54747800     -0.01355500
C        -0.73446500      4.25251900      0.97008100
C        -0.74979300      5.64415700      0.96188300
C        -0.04100600      6.35460200     -0.01917000
C         0.67714400      5.64870400     -0.99643500
C         0.68376400      4.25852500     -1.00079700
C        -0.02024200      7.83951700     -0.06588900
O         0.58251400      8.49680200     -0.88318000
O        -0.75609600      8.40962000      0.91364900
C        -4.02553400     -1.85425200      0.38409600
C        -3.76328700     -2.95100900      1.22212400
C        -4.64291900     -4.01899300      1.36322200
C        -5.84543900     -4.01503900      0.64614500
C        -6.14728900     -2.93943500     -0.20221100
C        -5.24557800     -1.87132000     -0.33149600
O        -5.48603600     -0.81711300     -1.15491300
C        -6.64551000     -0.79880000     -1.95022200
O        -6.66444900     -5.08247900      0.82762800
C        -7.88577800     -5.13745200      0.13150700
H         8.46300400     -5.96364400     -0.40479000
H         8.61052500     -4.17780500     -0.38328500
H         7.81449100     -5.03125700      0.98128100
H         4.49425100     -4.81184900     -2.00306700
H         2.87882300     -2.92355600     -1.78613400
H         7.12250500     -2.83250000      0.77012700
H         6.61549900      0.23421400      2.52139100
H         6.72345100     -1.55157800      2.63191000
H         7.58607200     -0.67691900      1.32176600
H         4.47407700      0.90353600     -0.34608300
H         2.80027600      2.71523100     -0.21933200
H         1.38155300     -2.09155900     -0.09307900
H        -1.34707400     -2.10934800      0.09716100
H        -4.47958000      0.84519900      0.33216800
H        -2.82985900      2.67869800      0.19475200
H        -1.25918900      3.69950000      1.74969500
H        -1.29978900      6.19102700      1.72810700
H         1.21436600      6.21514500     -1.75892700
H         1.21662700      3.71003600     -1.77809200
H        -0.67262100      9.37003700      0.79219600
H        -2.83539300     -2.94961300      1.79801400
H        -4.42610100     -4.85774600      2.02574300
H        -7.07546100     -2.93347400     -0.76604400
H        -6.60333100      0.12564900     -2.54137500
H        -6.68512900     -1.66230400     -2.63835500
H        -7.56629200     -0.79001200     -1.33903900
H        -8.37527800     -6.07476000      0.42779500
H        -8.54768100     -4.29141400      0.39224800
H        -7.73592000     -5.14398600     -0.96358600
