51
COc1ccc2c(c1)c1cc(OC)ccc1n2CCc1ccc(P(=O)(O)O)cc1
C         4.23083000      3.06256800     -0.04793100
C         2.89452000      3.44172700      0.19657600
C         1.89789600      2.48032700      0.40011400
C         2.25241700      1.13218800      0.35909700
C         3.59791500      0.73949900      0.10200800
C         4.58307500      1.70750000     -0.09603300
N         1.46971200     -0.00539600      0.54185600
C         2.27330300     -1.12913400      0.36321600
C         3.61129100     -0.71267300      0.10470100
C         1.94355300     -2.48338600      0.40904300
C         2.95773200     -3.42693300      0.20902000
C         4.28691900     -3.02417200     -0.03681100
C         4.61417500     -1.66305400     -0.08985900
C         0.03432700     -0.01831800      0.65510700
C        -0.68024500     -0.02716200     -0.71285600
C        -2.17758400     -0.03837500     -0.55725100
C        -2.87939300     -1.24857600     -0.45735200
C        -4.25878800     -1.26224200     -0.24900200
C        -4.96057600     -0.05513400     -0.13370400
C        -4.27116100      1.16312900     -0.23264500
C        -2.89373400      1.16496800     -0.43988800
P        -6.73801700     -0.12661000      0.10926500
O        -7.31804400     -1.49426300      0.15969800
O        -6.91977400      0.83032200      1.40596200
O        -7.40797700      0.81713300     -1.04660600
O         5.24551300      3.95040600     -0.25300900
O         5.31769400     -3.89393200     -0.23859600
C         5.06348600     -5.27518600     -0.19497900
C         4.96600800      5.32682300     -0.21448100
H         2.61739700      4.49477000      0.22916600
H         0.86959800      2.79575100      0.58577600
H         5.62306300      1.44091000     -0.29136400
H         0.92121700     -2.81707400      0.59566000
H         2.69996100     -4.48474800      0.24537800
H         5.64908900     -1.37805900     -0.28615600
H        -0.26908500     -0.90053400      1.23976100
H        -0.28488700      0.86011500      1.23712300
H        -0.35809000      0.86017400     -1.27990900
H        -0.34472200     -0.91206800     -1.27573400
H        -2.33696700     -2.19358500     -0.54979600
H        -4.80732500     -2.20348200     -0.17364500
H        -4.81419000      2.10672900     -0.14807900
H        -2.35999400      2.11612000     -0.51961000
H        -7.85325600      0.93332700      1.64751300
H        -7.79494000      0.26273000     -1.74030800
H         6.02276100     -5.77847700     -0.37684800
H         4.67519100     -5.59447900      0.79003900
H         4.34386900     -5.58941400     -0.97377300
H         5.91586000      5.84701500     -0.39827500
H         4.24072800      5.62494900     -0.99438500
H         4.57190500      5.64262400      0.76938000
