48
COc1ccc2c(c1)c1cc(OC)ccc1n2CCOCCP(=O)(O)O
O        -4.63596200     -3.92014200     -0.68342400
C        -4.38861500     -5.29910100     -0.57780900
C        -3.68168300     -3.04184900     -0.26080100
C        -3.99808600     -1.68358800     -0.39093100
C        -3.07032700     -0.72503400      0.01878000
C        -3.06948700      0.72688800      0.01886500
C        -3.99614100      1.68654600     -0.39075000
C        -3.67817400      3.04442700     -0.26047900
C        -2.43404100      3.43500800      0.27716800
C        -1.49663800      2.48247000      0.69261600
C        -1.81821000      1.13122600      0.56770900
N        -1.08238100     -0.00025800      0.91218800
C         0.26929200     -0.00112400      1.40880100
C         1.30590000     -0.00186700      0.28815400
O         2.57938700     -0.00335000      0.88126600
C         3.63946300     -0.00387000     -0.04454400
C         4.94575700     -0.00750600      0.73808500
P         6.43949500     -0.00168100     -0.27149600
O         6.18510000     -1.29103300     -1.23713500
O         6.19141300      1.29349500     -1.23263600
O         7.76465900     -0.00055400      0.40162400
C        -1.81952700     -1.13088000      0.56757100
C        -1.49949500     -2.48249400      0.69235600
C        -2.43799200     -3.43391100      0.27680700
O        -4.63142800      3.92388200     -0.68298200
C        -4.38222500      5.30251100     -0.57752900
H        -5.27986600     -5.81031100     -0.96640700
H        -3.51148100     -5.61049500     -1.17519800
H        -4.22732800     -5.61263600      0.47040900
H        -4.96557100     -1.40662400     -0.81292700
H        -4.96394000      1.41073800     -0.81278100
H        -2.18262600      4.49047300      0.37500600
H        -0.53787500      2.80642300      1.10143000
H         0.42624700      0.88154600      2.04738700
H         0.42513700     -0.88398900      2.04739400
H         1.16230400     -0.89299100     -0.35625000
H         1.16413000      0.88988100     -0.35579800
H         3.58879800     -0.89404800     -0.70149700
H         3.59211200      0.88873100     -0.69856500
H         4.99846300      0.87746400      1.39166100
H         4.99873400     -0.89758700      1.38460500
H         7.02802200     -1.70250600     -1.48138800
H         7.03184200      1.74123400     -1.41325200
H        -0.54110900     -2.80758600      1.10114900
H        -2.18776900     -4.48966500      0.37452200
H        -5.27277900      5.81487500     -0.96620400
H        -4.22053600      5.61596100      0.47065600
H        -3.50465300      5.61264200     -1.17493500
