64
COc1ccc(-c2ccc3c(c2)c2cc(-c4ccc(OC)c(F)c4)ccc2n3CCCP(=O)(O)O)cc1F
C         3.07013600     -0.57696400     -0.45353100
C         3.41823400      0.75041800     -0.80313300
C         2.46152200      1.72292100     -1.08646500
C         1.11335900      1.35675300     -1.01928900
C         0.73070200      0.03415300     -0.65950900
C         1.71155100     -0.92190900     -0.38361300
N        -0.02815800      2.11125700     -1.26164500
C        -1.14517600      1.31653700     -1.03445000
C        -0.72056500      0.00681300     -0.67459500
C        -2.50442300      1.63601800     -1.11442000
C        -3.42970000      0.63012000     -0.84357200
C        -3.03942300     -0.68408300     -0.48895400
C        -1.67043800     -0.98248700     -0.40775400
C        -0.10213400      5.88408700     -0.61262500
P        -0.13354400      6.97364600      0.82559800
O        -0.15857000      8.44545900      0.61486400
O        -1.42460200      6.40290600      1.64222500
O         1.16330300      6.44914400      1.66333800
C        -0.05154300      3.52657100     -1.54770700
C        -0.07701400      4.39009600     -0.28276700
H         4.47312900      1.03037100     -0.82349900
H         2.76668500      2.74074500     -1.33539800
H         1.41952900     -1.94422400     -0.13520300
H        -2.84215000      2.63748800     -1.38661700
H        -4.49358600      0.85854100     -0.93050000
H        -1.34593000     -1.98119400     -0.10869700
H        -0.98820300      6.14870900     -1.21373000
H         0.78285600      6.18151300     -1.19981700
H        -1.86684900      7.12356600      2.11588000
H         1.57172500      7.18417300      2.14521400
H         0.83039800      3.77189800     -2.16092900
H        -0.93209900      3.74015700     -2.17464300
H        -0.96060900      4.12739300      0.31918700
H         0.80636700      4.16007100      0.33272400
C         4.12416300     -1.57893900     -0.16317800
C         3.92859800     -2.56905000      0.82120200
C         5.34410200     -1.58473600     -0.85403600
C         4.91033700     -3.50685700      1.08592400
H         3.01425000     -2.60568400      1.41510300
C         6.33710100     -2.53221100     -0.58286300
H         5.52046000     -0.85159200     -1.64298600
C         6.13836900     -3.51398700      0.39493600
H         7.26674700     -2.50591400     -1.15083200
C        -4.06061400     -1.72160800     -0.20627100
C        -3.83983200     -3.06780500     -0.56204600
C        -5.27279200     -1.40913100      0.42501700
C        -4.79046400     -4.03575600     -0.29223900
H        -2.93052300     -3.37564200     -1.08020800
C        -6.23442400     -2.38893800      0.69430400
H        -5.46724100     -0.38291000      0.74136600
C        -6.01078700     -3.72453100      0.33978700
H        -7.15892900     -2.10328800      1.19551700
F         4.70799000     -4.43159700      2.03294100
F        -4.56479900     -5.30648500     -0.64892600
O         7.02179600     -4.47691300      0.74209800
O        -6.86317300     -4.75319800      0.54829400
C         8.26498200     -4.51831600      0.08116900
H         8.82134400     -5.36035500      0.51319800
H         8.14611000     -4.68520100     -1.00473500
H         8.84201500     -3.58854100      0.23559500
C        -8.09885200     -4.48679500      1.16970600
H        -8.70823100     -3.77689000      0.58154800
H        -8.62975600     -5.44551800      1.23460800
H        -7.96585100     -4.07993300      2.18854000
