18
O=C(O)Cc1ccc(F)cc1
F         3.74258500     -0.29539000     -0.52449600
C         2.46148500     -0.11269100     -0.17289000
C         1.65505000     -1.22517200      0.06014300
C         0.32417700     -1.02862800      0.42765600
C        -0.20175300      0.26560300      0.56562900
C        -1.65526600      0.46050200      0.95638200
C        -2.56945500     -0.13039700     -0.09794700
O        -2.94480800      0.78208600     -1.01382600
O        -2.90004600     -1.28897900     -0.15367400
C         0.63223400      1.36268400      0.31697600
C         1.96814400      1.18263800     -0.05033000
H         2.07745700     -2.22554600     -0.04928400
H        -0.32432400     -1.89051500      0.60018500
H        -1.87139300     -0.06299500      1.89959100
H        -1.87551500      1.52857200      1.08206300
H        -3.48224100      0.31115100     -1.67455300
H         0.23510800      2.37623900      0.41227300
H         2.62877000      2.02951300     -0.24353200
