61
COc1ccc(N(c2ccc(OC)cc2)c2ccc(-c3ccc(/C=C(\C#N)C(=O)O)c4nsnc34)c(F)c2)cc1
S        -3.82492400     -2.60746000      2.36885200
N        -2.56692400     -1.83423500      1.65892500
C        -3.07333600     -0.93603700      0.80916500
C        -2.32451000     -0.01876100     -0.01917700
C        -3.09611600      0.83672800     -0.80403000
C        -4.50909300      0.83361100     -0.81949000
C        -5.27654500     -0.02948700     -0.04039000
C        -4.53029800     -0.93548200      0.79772300
N        -5.06493600     -1.82948500      1.62880000
C        -6.71587300     -0.10150700      0.00601900
C        -7.67259200      0.61500300     -0.65721200
C        -9.09951300      0.28038700     -0.37088600
C        -0.85696900     -0.00081000     -0.02798500
C        -0.08462100     -1.16165400      0.21173700
C         1.30072500     -1.15801500      0.19204500
C         2.01640100      0.03370700     -0.06111100
C         1.27406300      1.20867200     -0.29437300
C        -0.10906500      1.17030900     -0.27506900
N         3.40860100      0.05373600     -0.07811000
C         4.12954200      1.25232800      0.18857000
C         5.14774500      1.67208200     -0.67253900
C         5.88599300      2.82789000     -0.40456800
C         5.59683600      3.59414800      0.73442500
C         4.57052800      3.17642300      1.60036600
C         3.85489200      2.01625100      1.33648200
C         4.15583500     -1.12151200     -0.37343800
C         3.86534800     -1.89264600     -1.51253800
C         4.60842300     -3.02867600     -1.80459500
C         5.67824500     -3.41374200     -0.97719500
C         5.98285500     -2.63985600      0.15252500
C         5.21754800     -1.50903500      0.44948200
H        -2.59228600      1.54447900     -1.45866300
H        -5.00236900      1.54168400     -1.48362200
H        -0.60258800     -2.09293700      0.42975900
H         1.84391000     -2.08245900      0.38428200
H         1.76271900      2.16073900     -0.49505300
H         5.37104600      1.08056200     -1.56217600
H         6.67467500      3.12333800     -1.09577900
H         4.36492400      3.77791900      2.48750000
H         3.06972700      1.69145700      2.02159300
H         3.04599500     -1.59299300     -2.16841100
H         4.39109000     -3.63522500     -2.68550700
H         6.80498400     -2.91007700      0.81446700
H         5.45340100     -0.91173900      1.33197800
O         6.24662600      4.73196000      1.08038600
O         6.35220700     -4.52935800     -1.34923800
C         7.28397700      5.20431300      0.25213800
H         7.66262200      6.12412300      0.71679300
H         8.11042300      4.47493400      0.17441000
H         6.92197300      5.43900300     -0.76505400
C         7.43582300     -4.96642100     -0.56202000
H         7.82791500     -5.87232300     -1.04262200
H         8.23922600     -4.20923300     -0.51412200
H         7.12130400     -5.21427200      0.46781300
H        -7.11807300     -0.85658900      0.68744500
O        -9.95039300      1.04756700     -1.07515900
H       -10.84895500      0.76839900     -0.83198000
O        -9.46419400     -0.57531400      0.39978800
C        -7.39756900      1.65299100     -1.59751900
N        -7.15117600      2.49423100     -2.36099200
F        -0.74532000      2.33497800     -0.49339300
