117
CCCCCCc1cc(-c2sc(-c3sc(-c4ccc(N(c5ccccc5)c5ccccc5)cc4)cc3CCCCCC)cc2CCCCCC)sc1/C=C(\C#N)C(=O)O
O        11.04774700     -1.69467800      0.11816200
C        10.33292700     -2.84487600      0.04476100
C         8.87125500     -2.61563300      0.01551900
C         8.06554200     -3.79107100     -0.06131600
N         7.38491200     -4.73147200     -0.12394400
C         8.34138500     -1.34529600      0.06076600
C         6.99416000     -0.90432500      0.04570500
C         6.58618700      0.44549400      0.09992800
C         7.55542000      1.59905900      0.18452300
C         6.91765700      2.98793800      0.22422900
C         7.94758900      4.11326400      0.31962000
C         7.32285800      5.50799700      0.35396100
C         8.34644000      6.63993000      0.45599900
C         7.71134500      8.02903800      0.48796300
C         5.18944500      0.57854000      0.07002200
C         4.49324900     -0.63486300     -0.00501100
C         3.06749600     -0.79995100     -0.04304600
S         2.05988000      0.63474600      0.01678900
C         2.28296700     -1.95910000     -0.12254200
C         2.84470400     -3.35478600     -0.19191500
C         1.81837500     -4.48174900     -0.30370300
C         2.47418700     -5.86122000     -0.36825400
C         1.47134100     -7.00838100     -0.48724300
C         2.12409700     -8.39049300     -0.54510300
C         1.11565600     -9.53175700     -0.66593500
C         0.90020000     -1.66063600     -0.13200000
C         0.58914800     -0.30592000     -0.06125900
C        -0.72636300      0.28180700     -0.03781100
C        -1.13038700      1.62004500     -0.03615900
C        -0.18078600      2.79066200     -0.06019900
C        -0.83327700      4.17220100     -0.10977600
C         0.19073900      5.30655800     -0.14353000
C        -0.43978000      6.69821200     -0.18688600
C         0.58095200      7.83666500     -0.22345400
C        -0.05890500      9.22329100     -0.26567900
C        -2.54610500      1.74647000     -0.01760800
C        -3.23659800      0.54747900     -0.00237000
S        -2.11671100     -0.78782800     -0.00122100
C        -4.67978600      0.32764500      0.02291000
C        -5.24717500     -0.92890600     -0.27063000
C        -6.62177800     -1.12941000     -0.25148400
C        -7.49599200     -0.07552200      0.07241900
C        -6.94043500      1.18308100      0.37224500
C        -5.56581700      1.37685500      0.34445500
N        -8.88979700     -0.27454100      0.10001900
C        -9.76554700      0.75124000     -0.33608500
C       -10.93271300      1.04444100      0.38861000
C       -11.79808900      2.04689600     -0.04956700
C       -11.50770400      2.78222400     -1.20285700
C       -10.34287800      2.49634000     -1.92175300
C        -9.48088800      1.48386100     -1.50061200
C        -9.42786700     -1.49827300      0.57209000
C       -10.50346900     -2.10532000     -0.09709400
C       -11.03997100     -3.30238400      0.37738300
C       -10.50466700     -3.92067900      1.51154700
C        -9.42908200     -3.32161100      2.17448100
C        -8.89796300     -2.11553100      1.71749200
S         5.60556600     -1.97490900     -0.04067400
O        10.86251100     -3.93056600      0.00854100
H        11.98058700     -1.96417100      0.13152400
H         9.08455600     -0.54820800      0.11827600
H         8.18750800      1.46833900      1.08066200
H         8.24989600      1.54723500     -0.67245500
H         6.29863400      3.13571100     -0.67796100
H         6.22780200      3.05331800      1.08371900
H         8.56649000      3.96653700      1.22373600
H         8.64517900      4.04508700     -0.53523000
H         6.70659000      5.65398700     -0.55250400
H         6.62102700      5.57260200      1.20607900
H         8.96070800      6.49154300      1.36243000
H         9.04741500      6.57166500     -0.39548900
H         8.47203700      8.82238700      0.55859300
H         7.11677600      8.21657500     -0.42174500
H         7.03399400      8.13824600      1.35136000
H         4.67424600      1.53698700      0.10281900
H         3.54114100     -3.41940200     -1.04705200
H         3.47622200     -3.53198700      0.69730700
H         1.12896900     -4.44423000      0.55807900
H         1.19599300     -4.32876900     -1.20300700
H         3.17414600     -5.89356300     -1.22250100
H         3.09942900     -6.01029900      0.53040800
H         0.76963700     -6.97155000      0.36692500
H         0.85051000     -6.85972000     -1.39048600
H         2.82698500     -8.42295700     -1.39676200
H         2.74324200     -8.53569600      0.35822700
H         1.61459100    -10.51305600     -0.70220000
H         0.42056300     -9.54196200      0.19036600
H         0.50777900     -9.43238500     -1.58089900
H         0.12743900     -2.42522400     -0.19290700
H         0.47569700      2.73931200      0.82760000
H         0.49936100      2.68530000     -0.92463000
H        -1.48510600      4.24255700     -0.99813700
H        -1.49222000      4.30276300      0.76642900
H         0.84963400      5.23034500      0.74093300
H         0.85111400      5.17609800     -1.02044300
H        -1.10078900      6.77217500     -1.07031000
H        -1.09923300      6.82761200      0.69132000
H         1.24104400      7.75933800      0.65947300
H         1.23883900      7.70473100     -1.10150200
H         0.70029400     10.02088300     -0.28967600
H        -0.69578800      9.34174400     -1.15814600
H        -0.69617600      9.39550000      0.61773900
H        -3.05575000      2.70754000     -0.03758100
H        -4.59797700     -1.76292000     -0.54782600
H        -7.03158500     -2.10978800     -0.49724000
H        -7.60016700      2.00936500      0.63983600
H        -5.16833800      2.35803900      0.60935900
H       -11.15554100      0.47916500      1.29489700
H       -12.70248000      2.26311900      0.52439300
H       -12.18432400      3.57059400     -1.53950400
H       -10.10815700      3.05741100     -2.82964500
H        -8.57946800      1.25371600     -2.07089200
H       -10.91498900     -1.62974900     -0.98875600
H       -11.87698700     -3.76247600     -0.15347300
H       -10.92277700     -4.86133600      1.87624800
H        -9.00623000     -3.78999400      3.06661900
H        -8.06743000     -1.64340100      2.24471500
