61
COCCOc1ccc2c(c1)c1cc(OCCOC)ccc1n2CCCCP(=O)(O)O
C        -2.19115800     -3.04164100     -0.14683400
C        -0.88859600     -3.43400800     -0.51845600
C         0.09347300     -2.48204900     -0.81295900
C        -0.24173100     -1.12998000     -0.73544000
C        -1.55313300     -0.72501800     -0.35133400
C        -2.52463100     -1.68462200     -0.06187500
N         0.53146800     -0.00031000     -0.98675400
C        -0.24066600      1.13010100     -0.73548900
C        -1.55244100      0.72638400     -0.35133700
C         0.09579200      2.48185600     -0.81306200
C        -0.88538600      3.43474200     -0.51856700
C        -2.18830600      3.04360400     -0.14690300
C        -2.52303500      1.68690000     -0.06187500
C         4.31367300     -0.00263000     -0.35058300
C         5.19348400     -0.00329900      0.90330700
P         6.96916600     -0.00313400      0.58689600
O         7.91152500     -0.00103000      1.73784500
O         7.13350200     -1.29764500     -0.39356700
O         7.13737200      1.28936100     -0.39629900
C         1.94544000     -0.00100700     -1.27504300
C         2.82277900     -0.00161700     -0.01916300
H        -0.62788500     -4.48998500     -0.57874500
H         1.09685800     -2.80707000     -1.09358600
H        -3.53848200     -1.40834600      0.23248700
H         1.09947200      2.80593500     -1.09372300
H        -0.62369300      4.49047200     -0.57889600
H        -3.53714200      1.41156800      0.23248800
H         4.56338400      0.87935200     -0.96361200
H         4.56211300     -0.88488800     -0.96370000
H         4.99439600     -0.88862100      1.52963400
H         4.99494800      0.88190100      1.53001100
H         7.99368800     -1.71872600     -0.24513000
H         7.98633400      1.72466700     -0.22597000
H         2.17389800     -0.88156600     -1.89727400
H         2.17481100      0.87941700     -1.89712100
H         2.57026600      0.88162200      0.59218600
H         2.56909200     -0.88459200      0.59207400
O        -3.18889900     -3.92335000      0.15192200
O        -3.18523600      3.92624400      0.15181700
C        -2.93274400     -5.30650900      0.08734700
H        -2.12856800     -5.60208300      0.78667600
H        -2.62253400     -5.61333900     -0.92885400
C        -2.92787800      5.30916800      0.08707300
H        -2.12346200      5.60415600      0.78637500
H        -2.61739000      5.61559100     -0.92916600
C        -4.21825300     -6.01967100      0.46248600
H        -4.53301800     -5.70446200      1.47878400
H        -5.02606400     -5.71768900     -0.23573800
C        -4.21275500      6.02349700      0.46216500
H        -4.52789400      5.70844300      1.47839400
H        -5.02080400      5.72239300     -0.23616100
O        -3.96723700      7.40291400      0.40280200
O        -3.97404500     -7.39930400      0.40291400
C        -5.08885700     -8.18315900      0.72885100
H        -5.93849200     -8.00242100      0.03918600
H        -4.79325300     -9.23953800      0.65207700
H        -5.44419800     -7.98928000      1.76148600
C        -5.08130000      8.18776800      0.72888900
H        -4.78466100      9.24388100      0.65242900
H        -5.93107400      8.00805900      0.03912400
H        -5.43689500      7.99394500      1.76144700
