33
O=P(O)(O)CCn1c2ccc(I)cc2c2cc(I)ccc21
C         3.03608800     -1.21235800     -0.10871500
C         3.43266000      0.11886800     -0.33645500
C         2.48050400      1.12144600     -0.52422700
C         1.12905300      0.76289800     -0.48201300
C         0.72599900     -0.58115900     -0.24194900
C         1.69172000     -1.57852700     -0.05772500
N        -0.00095800      1.55302700     -0.64661100
C        -1.12988100      0.76133600     -0.48206600
C        -0.72499200     -0.58215900     -0.24196100
C        -2.48182000      1.11803900     -0.52434100
C        -3.43260700      0.11416800     -0.33655000
C        -3.03421800     -1.21650900     -0.10875700
C        -1.68935500     -1.58084300     -0.05773800
C        -0.00198500      2.98961600     -0.78641000
C        -0.00279400      3.70884100      0.57119200
P        -0.00417200      5.50832600      0.44305300
O         1.28909100      5.75258000     -0.52134400
O        -1.29756600      5.75026700     -0.52174500
O        -0.00499100      6.33254700      1.67849100
H         4.49317300      0.37228500     -0.36527200
H         2.79571700      2.15214900     -0.69593900
H         1.39696100     -2.61301300      0.12380700
H        -2.79843500      2.14830600     -0.69608900
H        -4.49346600      0.36613000     -0.36539600
H        -1.39319300     -2.61492300      0.12382600
H         0.87946800      3.29088600     -1.36953200
H        -0.88364200      3.28958400     -1.36989800
H        -0.89052100      3.42773200      1.15919200
H         0.88513900      3.42909200      1.15952600
H         1.72262500      6.59244900     -0.30596600
H        -1.73177400      6.59010600     -0.30759200
I        -4.52821000     -2.70375300      0.16993400
I         4.53207300     -2.69760500      0.16993200
