60
O=P(O)(O)CCCn1c2ccccc2c2cc3c(cc21)c1ccccc1n3CCCP(=O)(O)O
O        -1.72080200      7.40409400      2.18257700
P        -1.02159000      6.10843300      1.97191400
O         0.44063200      6.01714900      2.68665100
O        -1.84972500      4.82204000      2.53874900
C        -0.62981200      5.58845200      0.28922800
C         0.07557700      4.23452700      0.18673100
C         0.36130600      3.84493700     -1.26721800
N         1.02159000      2.56761300     -1.38663600
C         2.39310100      2.36144100     -1.34083300
C         3.43346900      3.29636800     -1.29360200
C         4.74350600      2.81428900     -1.26813400
C         5.01803600      1.43442600     -1.28450900
C         3.97850000      0.50481500     -1.32229000
C         2.65447900      0.96050300     -1.34671700
C         1.36635300      0.29561900     -1.37107700
C         0.99061100     -1.05342200     -1.37288700
C        -0.37633000     -1.33049600     -1.37958200
C        -1.36635300     -0.29561900     -1.37107700
C        -0.99061100      1.05342200     -1.37288700
C         0.37633000      1.33049600     -1.37958200
C        -2.65447900     -0.96050300     -1.34671700
C        -3.97850000     -0.50481500     -1.32229000
C        -5.01803600     -1.43442600     -1.28450900
C        -4.74350600     -2.81428900     -1.26813400
C        -3.43346900     -3.29636800     -1.29360200
C        -2.39310100     -2.36144100     -1.34083300
N        -1.02159000     -2.56761300     -1.38663600
C        -0.36130600     -3.84493700     -1.26721800
C        -0.07557700     -4.23452700      0.18673100
C         0.62981200     -5.58845200      0.28922800
P         1.02159000     -6.10843300      1.97191400
O         1.72080200     -7.40409400      2.18257700
O         1.84972500     -4.82204000      2.53874900
O        -0.44063200     -6.01714900      2.68665100
H         0.50354300      6.65868600      3.41033800
H        -2.55950900      5.11775500      3.12857800
H        -1.58863700      5.58453600     -0.25611800
H        -0.01796300      6.39611100     -0.14633100
H         1.02289300      4.26518100      0.74672600
H        -0.54541900      3.45592700      0.65596400
H        -0.57713600      3.80857300     -1.84433500
H         0.98989700      4.60910600     -1.75164300
H         3.23515400      4.36934900     -1.27155900
H         5.57170400      3.52611400     -1.23142200
H         6.05457300      1.09111400     -1.26295000
H         4.19315900     -0.56666500     -1.32923600
H         1.74195400     -1.84451300     -1.35873200
H        -1.74195400      1.84451300     -1.35873200
H        -4.19315900      0.56666500     -1.32923600
H        -6.05457300     -1.09111400     -1.26295000
H        -5.57170400     -3.52611400     -1.23142200
H        -3.23515400     -4.36934900     -1.27155900
H        -0.98989700     -4.60910600     -1.75164300
H         0.57713600     -3.80857300     -1.84433500
H         0.54541900     -3.45592700      0.65596400
H        -1.02289300     -4.26518100      0.74672600
H         0.01796300     -6.39611100     -0.14633100
H         1.58863700     -5.58453600     -0.25611800
H         2.55950900     -5.11775500      3.12857800
H        -0.50354300     -6.65868600      3.41033800
