60
O=P(O)(O)CCCn1c2ccccc2c2cc3c4ccccc4n(CCCP(=O)(O)O)c3cc21
O         6.21056000     -0.54314600      0.44214200
P         4.90748900     -0.15120500     -0.14818100
O         4.96919600      0.97032800     -1.32393700
O         4.11098100     -1.35428400     -0.90614600
C         3.70746900      0.57860900      0.99735500
C         2.41850100      1.11420600      0.37065900
C         1.54727100      1.84229100      1.40144400
N         0.32400100      2.37254600      0.84769800
C         0.14852500      3.65384800      0.32896800
C         1.04757500      4.72253800      0.27730700
C         0.60559000      5.91952600     -0.29258900
C        -0.69775200      6.04808700     -0.80276100
C        -1.58976500      4.97494800     -0.75612100
C        -1.17260800      3.76423600     -0.19121500
C        -1.80993900      2.47381800      0.00608900
C        -3.07211900      1.96363200     -0.31242900
C        -3.34693700      0.62787300     -0.00446100
C        -4.49270800     -0.23960000     -0.22144200
C        -5.75635000     -0.04893200     -0.79215600
C        -6.64101100     -1.12656800     -0.86581200
C        -6.27151600     -2.39122100     -0.37656100
C        -5.01695100     -2.60882100      0.19948600
C        -4.13695700     -1.52648400      0.27696100
N        -2.84902500     -1.46207000      0.80608300
C        -2.02821000     -2.55788400      1.26430600
C        -0.95500300     -2.95702900      0.22659500
C         0.39381700     -3.30270000      0.86543700
P         1.76377700     -3.38402000     -0.29945900
O         3.14671700     -3.42288000      0.29626600
O         1.36986500     -4.68970300     -1.17107900
O         1.56570200     -2.11520000     -1.27814200
C        -2.35059200     -0.17883500      0.63125600
C        -1.08241400      0.30316400      0.96811000
C        -0.83592100      1.63972400      0.64480400
H         5.81632000      0.92224200     -1.79254500
H         4.03692800     -2.19691100     -0.36111900
H         3.49750300     -0.20357400      1.74753300
H         4.25557400      1.37643500      1.52645000
H         2.66067100      1.80820100     -0.44861300
H         1.84206600      0.28721200     -0.07243500
H         1.28986000      1.16269300      2.23119100
H         2.11140200      2.67382600      1.85159400
H         2.06510600      4.63221200      0.66176800
H         1.29028100      6.76938000     -0.34436200
H        -1.01249600      6.99680000     -1.24289400
H        -2.60095000      5.07716700     -1.15728800
H        -3.81964600      2.58992900     -0.80460700
H        -6.04477800      0.93206200     -1.17731300
H        -7.62926000     -0.98833800     -1.30976700
H        -6.97650400     -3.22292900     -0.44720100
H        -4.74164900     -3.59692800      0.57314600
H        -1.54161600     -2.25090900      2.20657100
H        -2.68061700     -3.40441800      1.51802000
H        -1.30517800     -3.79482900     -0.39489800
H        -0.80665300     -2.10680800     -0.45352100
H         0.69316500     -2.52563000      1.58944300
H         0.37538200     -4.25646100      1.41712600
H         2.08090700     -4.96866000     -1.76851300
H         2.41919400     -1.62335600     -1.37551700
H        -0.32496300     -0.32482200      1.43368900
