60
O=P(O)(O)CCCn1c2ccccc2c2ccc3c4ccccc4n(CCCP(=O)(O)O)c3c21
P        -0.30890500      5.35744100     -1.73805200
O         1.15073300      5.90851400     -1.27251200
O        -1.18624300      5.30944600     -0.36208400
O        -0.96244800      6.14356000     -2.81812100
C         0.06712400      3.61843000     -2.04073400
C         0.68657500      2.88255200     -0.85109200
C         0.96244800      1.41265900     -1.17997300
N         1.48447300      0.66534100     -0.03729000
C         2.71087600      1.04711200      0.52898800
C         3.84988800      1.54741800     -0.10769300
C         4.95799400      1.85859400      0.68336300
C         4.92992200      1.68489500      2.07883800
C         3.78417000      1.20545800      2.71359600
C         2.65947600      0.89111600      1.93951100
C         1.32375600      0.42231700      2.26128700
C         0.66849600      0.18878900      3.48676400
C        -0.66849600     -0.18878900      3.48676400
C        -1.32375600     -0.42231700      2.26128700
C        -0.65077000     -0.26115700      1.02093300
C         0.65077000      0.26115700      1.02093300
N        -1.48447300     -0.66534100     -0.03729000
C        -0.96244800     -1.41265900     -1.17997300
C        -0.68657500     -2.88255200     -0.85109200
C        -0.06712400     -3.61843000     -2.04073400
P         0.30890500     -5.35744100     -1.73805200
O        -1.15073300     -5.90851400     -1.27251200
O         1.18624300     -5.30944600     -0.36208400
O         0.96244800     -6.14356000     -2.81812100
C        -2.71087600     -1.04711200      0.52898800
C        -3.84988800     -1.54741800     -0.10769300
C        -4.95799400     -1.85859400      0.68336300
C        -4.92992200     -1.68489500      2.07883800
C        -3.78417000     -1.20545800      2.71359600
C        -2.65947600     -0.89111600      1.93951100
H         1.20769500      6.87047100     -1.37567300
H        -1.96560700      5.87799200     -0.45263800
H        -0.88613100      3.15536100     -2.34684300
H         0.73090500      3.59706300     -2.92134200
H         1.61955300      3.38159500     -0.55036500
H         0.00283800      2.93328600      0.01059600
H         0.02932700      0.94283100     -1.51125400
H         1.67689800      1.32739700     -2.01460000
H         3.88183300      1.68743800     -1.18965000
H         5.86324000      2.24210800      0.20688400
H         5.81420000      1.93379500      2.66968700
H         3.76057900      1.08210700      3.79883200
H         1.20372400      0.33491500      4.42720000
H        -1.20372400     -0.33491500      4.42720000
H        -1.67689800     -1.32739700     -2.01460000
H        -0.02932700     -0.94283100     -1.51125400
H        -0.00283800     -2.93328600      0.01059600
H        -1.61955300     -3.38159500     -0.55036500
H        -0.73090500     -3.59706300     -2.92134200
H         0.88613100     -3.15536100     -2.34684300
H        -1.20769500     -6.87047100     -1.37567300
H         1.96560700     -5.87799200     -0.45263800
H        -3.88183300     -1.68743800     -1.18965000
H        -5.86324000     -2.24210800      0.20688400
H        -5.81420000     -1.93379500      2.66968700
H        -3.76057900     -1.08210700      3.79883200
