39
O=P(O)(O)CCCCn1c2ccccc2c2sc3ccsc3c21
C         3.73931400      3.92800300      0.30045500
C         2.46146800      4.26579300     -0.18869100
C         1.52815000      3.28288300     -0.51667200
C         1.89624500      1.94349400     -0.34893700
C         3.19289600      1.58361500      0.15644100
C         4.11109800      2.59799800      0.47542200
N         1.16882500      0.78638500     -0.60725100
C         1.95396700     -0.29248400     -0.25152700
C        -0.21463500      0.69961000     -1.02435200
C        -1.18923800      0.53784100      0.14464400
P        -5.35145600      0.12077900      0.36343400
O        -5.55935900      1.48445700     -0.51102800
O        -5.30838900     -1.07875500     -0.74123100
O        -6.38202000     -0.06521400      1.41969600
H         4.44589500      4.72343600      0.54750700
H         2.19410500      5.31773800     -0.31224900
H         0.53954800      3.55625700     -0.89051100
H         5.10178700      2.34163500      0.85738500
H        -0.45715000      1.60101600     -1.60747900
H        -0.31194700     -0.15284700     -1.71748900
H        -0.91056100     -0.36356000      0.71690600
H        -1.07147900      1.39403600      0.83064800
H        -6.44015200      1.85111900     -0.34081100
H        -6.14864600     -1.56175000     -0.74349500
C        -2.63873800      0.42680100     -0.32315900
H        -2.74283200     -0.42141500     -1.01981200
H        -2.92317300      1.32970100     -0.88874500
C        -3.61577300      0.23678000      0.84062400
H        -3.38907900     -0.68289400      1.40488700
H        -3.55294200      1.07383400      1.55564100
C         3.19686700      0.15161400      0.20803900
S         4.25342400     -1.16932200      0.66745400
C         1.82948900     -1.70639200     -0.23008200
C         2.99595600     -2.32302300      0.24446300
C         2.90173300     -3.74493000      0.29151200
C         1.67524200     -4.18398700     -0.14029000
H         1.32433400     -5.21193400     -0.21340200
H         3.69542500     -4.41223300      0.62742700
S         0.60850300     -2.88343500     -0.61583000
