39
O=P(O)(O)CCCCn1c2ccc(F)cc2c2sc3ccsc3c21
C        -4.01770600     -3.22302200      0.17715200
C        -2.80931100     -3.74503400     -0.31136400
C        -1.75205600     -2.88930300     -0.61730800
C        -1.93137300     -1.51560800     -0.42726600
C        -3.16889800     -0.98953000      0.08176700
C        -4.22475200     -1.86760300      0.38189300
N        -1.04993500     -0.46378100     -0.66448100
C        -1.68119400      0.70341500     -0.28931000
C         0.33823000     -0.56082000     -1.06463600
C         1.31045800     -0.54263200      0.11771100
P         5.49025300     -0.60926700      0.38521100
O         5.54845800     -1.96052600     -0.52759400
O         5.59927500      0.62010600     -0.68332500
O         6.52261400     -0.56033300      1.45467000
H        -2.71936700     -4.82444000     -0.44193800
H        -0.81030100     -3.29294400     -0.99299300
H        -5.18209500     -1.51397600      0.76681300
H         0.46489200     -1.48049600     -1.65566200
H         0.55936900      0.27754000     -1.74619500
H         1.13714200      0.37592300      0.70401900
H         1.08022300     -1.38994700      0.78593000
H         6.41520300     -2.38532900     -0.43994000
H         6.45917300      1.05837200     -0.59514000
C         2.76829600     -0.60064700     -0.33374200
H         2.98297800      0.24304500     -1.01041000
H         2.94815400     -1.51962900     -0.91589700
C         3.74637000     -0.55422000      0.84406900
H         3.61429800      0.36836200      1.43312300
H         3.58346600     -1.39957700      1.53284600
C        -2.97664700      0.42623900      0.15994200
S        -3.84286400      1.87022500      0.64748900
C        -1.36312800      2.08585300     -0.23530300
C        -2.43530900      2.84644000      0.25241900
C        -2.14537600      4.24005400      0.33367500
C        -0.86772400      4.51437400     -0.08571900
H        -0.37739000      5.48522500     -0.13321000
H        -2.84026200      5.00290700      0.68466800
S         0.01090300      3.09070600     -0.59079700
F        -5.01226800     -4.08402100      0.45957900
