59
O=P(O)(O)CCCCn1c2ccc(-c3cccc(Cl)c3)cc2c2cc(-c3cccc(Cl)c3)ccc21
C        -1.36836900     -3.03993800     -0.16452900
C        -0.04601900     -3.45841500     -0.44913300
C         0.97147100     -2.55668500     -0.75273400
C         0.65591600     -1.19394000     -0.77422100
C        -0.66271900     -0.74203100     -0.48512900
C        -1.66459100     -1.66851600     -0.18647800
N         1.46293700     -0.09812200     -1.05011600
C         0.70728500      1.05880000     -0.91285800
C        -0.62835600      0.70637600     -0.56881100
C         1.08274400      2.39785100     -1.06504300
C         0.10688500      3.37502100     -0.88211600
C        -1.23108400      3.05527100     -0.54689900
C        -1.58680200      1.70693000     -0.39083800
C         5.22101000     -0.13412300     -0.28531900
C         6.05795800     -0.07177500      0.99589400
P         7.84304500     -0.12691200      0.73951500
O         8.74642800     -0.07187400      1.91948900
O         8.00864600     -1.48316900     -0.15307700
O         8.06750800      1.09771500     -0.31600200
C         2.88833200     -0.14524000     -1.29058900
C         3.72013700     -0.08306600     -0.00651900
H         0.17975700     -4.52638200     -0.45453600
H         1.97870000     -2.91441400     -0.97264600
H        -2.67116600     -1.32285500      0.05725800
H         2.10855900      2.68073900     -1.30688500
H         0.39137100      4.42497200     -0.97291700
H        -2.61784500      1.43757900     -0.15325400
H         5.50981700      0.70200900     -0.94364300
H         5.47062400     -1.05835200     -0.83247200
H         5.81944700     -0.91133500      1.66961400
H         5.85830600      0.85543600      1.55809900
H         8.85147100     -1.91540700      0.05235900
H         8.92244000      1.52391900     -0.15224100
H         3.11554700     -1.06790500     -1.84776200
H         3.15489100      0.68938200     -1.95827100
H         3.46638200      0.84195100      0.53889600
H         3.42695600     -0.92032700      0.64967800
C        -2.23594200      4.13121800     -0.36054700
C        -2.21894400      5.29051200     -1.15770900
C        -3.23479200      4.01229200      0.62200100
C        -3.16914400      6.29588300     -0.97698400
H        -1.46896000      5.39178600     -1.94404400
C        -4.18104200      5.02328200      0.78825700
H        -3.26446100      3.14238700      1.27833900
C        -4.16232100      6.17442400     -0.00271100
H        -3.14524700      7.18556600     -1.61084400
H        -4.91163800      6.95249400      0.14682800
C        -2.41976000     -4.03753900      0.15384800
C        -2.12561300     -5.19542000      0.89718400
C        -3.74253000     -3.84309100     -0.28175800
C        -3.12151300     -6.12627000      1.19379000
H        -1.11150600     -5.35357700      1.26813800
C        -4.72882900     -4.77983300      0.02629700
H        -4.00429100     -2.97299500     -0.88410800
C        -4.43535700     -5.92967800      0.76305800
H        -2.87614800     -7.01569200      1.77912100
H        -5.22286700     -6.64901400      0.99025400
Cl       -6.36425000     -4.51321600     -0.53604700
Cl       -5.40722700      4.84941700      2.02448400
