61
COc1cccc(-c2ccc3c(c2)c2cc(-c4cccc(OC)c4)ccc2n3CCP(=O)(O)O)c1
C        -0.79548500     -3.00659500     -0.03471100
C         0.52719800     -3.48774800     -0.18840600
C         1.60930400     -2.63742900     -0.40722000
C         1.35803100     -1.26336100     -0.47529700
C         0.04236100     -0.74642800     -0.31338700
C        -1.02432500     -1.62345800     -0.09999700
N         2.23783100     -0.20891300     -0.68783500
C         1.52967300      0.98519800     -0.62415000
C         0.15349700      0.69873800     -0.40315000
C         1.98393500      2.30246200     -0.74361000
C         1.04393000      3.32713600     -0.65279100
C        -0.33360300      3.07573600     -0.44297200
C        -0.76695000      1.74669900     -0.31829300
C         3.67290700     -0.32549800     -0.76636600
C         4.33614100     -0.30597800      0.61993100
P         6.13332900     -0.44329600      0.57481400
O         6.31367100     -1.80237000     -0.30869000
O         6.52797100      0.77072400     -0.44347200
O         6.90332600     -0.42998600      1.84535200
H         0.70106600     -4.56486000     -0.15726600
H         2.61622700     -3.04153600     -0.52711300
H        -2.03260500     -1.23075800      0.04636800
H         3.04078900      2.53229300     -0.89101800
H         1.38496000      4.36190600     -0.71863700
H        -1.82786800      1.53031900     -0.17737800
H         3.92730700     -1.25827000     -1.28928800
H         4.06439600      0.49813400     -1.37982000
H         4.10036400      0.63107500      1.14849300
H         3.96381000     -1.13708300      1.23918100
H         7.14016700     -2.25404600     -0.07959100
H         7.35202300      1.19368100     -0.15795900
C        -1.91660000     -3.95247100      0.19532800
C        -3.17594600     -3.71089900     -0.38838200
C        -1.74726500     -5.09327400      0.99446400
C        -4.24287600     -4.59165400     -0.17350600
H        -3.29616700     -2.84267900     -1.03440300
C        -2.81625700     -5.97050300      1.20384000
H        -0.78677300     -5.28052600      1.47727000
C        -4.05969300     -5.73054700      0.62876200
H        -2.67715200     -6.85204800      1.83461600
H        -4.90525700     -6.40369900      0.77938300
C        -1.29730900      4.20174100     -0.35237200
C        -1.15412500      5.34192400     -1.15754400
C        -2.37824600      4.13646100      0.54898800
C        -2.07375100      6.39127100     -1.06099500
H        -0.33932800      5.39671400     -1.88123900
C        -3.29729000      5.18868000      0.63899400
H        -2.46897900      3.26623500      1.19681100
C        -3.14169900      6.32517400     -0.17250200
H        -1.95865000      7.27178200     -1.69803300
H        -3.86899000      7.13374800     -0.08265700
O        -5.48087800     -4.43105000     -0.70743600
O        -4.35795200      5.20197500      1.48654600
C        -5.73221500     -3.31388800     -1.52642100
H        -5.09203400     -3.31133100     -2.42713600
H        -6.78335900     -3.38166000     -1.83688600
H        -5.57936800     -2.36325900     -0.98377400
C        -4.57603400      4.09382400      2.32711000
H        -3.73300700      3.93191600      3.02303600
H        -5.48065100      4.31408600      2.90939700
H        -4.73862400      3.16548300      1.74983600
