105
COc1ccc(N(c2ccc(OC)cc2)c2ccc3c(c2)C(CCP(=O)(O)O)(CCP(=O)(O)O)c2cc(N(c4ccc(OC)cc4)c4ccc(OC)cc4)ccc2-3)cc1
O         3.71705900     -1.64520700      2.63792100
P         4.04051700     -0.32772700      1.72167100
C         2.56041500     -0.20579800      0.70809100
C         1.25117600     -0.08589100      1.49017100
C         0.00000000      0.00000000      0.58472000
C        -1.25117600      0.08589100      1.49017100
C        -2.56041500      0.20579800      0.70809100
P        -4.04051700      0.32772700      1.72167100
O        -5.37321100      0.37642300      1.06138500
O        -3.88134900     -0.93395500      2.74776200
O        -3.71705900      1.64520700      2.63792100
C        -0.05250300     -1.17858100     -0.38181500
C        -0.06724300     -2.52636600     -0.07155500
C        -0.00585500     -3.48092300     -1.11007200
C         0.00000000     -3.03710800     -2.44849200
C        -0.01923400     -1.67506100     -2.75572200
C        -0.02301200     -0.73273100     -1.72178800
C         0.02301200      0.73273100     -1.72178800
C         0.01923400      1.67506100     -2.75572200
C         0.00000000      3.03710800     -2.44849200
C         0.00585500      3.48092300     -1.11007200
C         0.06724300      2.52636600     -0.07155500
C         0.05250300      1.17858100     -0.38181500
N        -0.09872900      4.84919500     -0.79173400
C         0.51247600      5.83776800     -1.60057500
C        -0.17273000      7.02307000     -1.92620800
C         0.43009200      7.99915600     -2.70908100
C         1.73016400      7.81334000     -3.20902300
C         2.41759700      6.63190700     -2.89624700
C         1.81339500      5.66419200     -2.08906800
O         2.23073800      8.81718400     -3.97539700
C         3.52978100      8.68649700     -4.50087200
C        -0.85530400      5.23425800      0.34560900
C        -2.07817800      4.61297300      0.62997000
C        -2.79514000      4.92011500      1.78682800
C        -2.31296400      5.89700500      2.66917800
C        -1.10859300      6.55495800      2.36870100
C        -0.38329600      6.21913200      1.23133100
O        -2.93191000      6.26281500      3.82273800
C        -4.10660400      5.58704900      4.19934200
N         0.09872900     -4.84919500     -0.79173400
C         0.85530400     -5.23425800      0.34560900
C         0.38329600     -6.21913200      1.23133100
C         1.10859300     -6.55495800      2.36870100
C         2.31296400     -5.89700500      2.66917800
C         2.79514000     -4.92011500      1.78682800
C         2.07817800     -4.61297300      0.62997000
O         2.93191000     -6.26281500      3.82273800
C         4.10660400     -5.58704900      4.19934200
C        -0.51247600     -5.83776800     -1.60057500
C         0.17273000     -7.02307000     -1.92620800
C        -0.43009200     -7.99915600     -2.70908100
C        -1.73016400     -7.81334000     -3.20902300
C        -2.41759700     -6.63190700     -2.89624700
C        -1.81339500     -5.66419200     -2.08906800
O        -2.23073800     -8.81718400     -3.97539700
C        -3.52978100     -8.68649700     -4.50087200
O         5.37321100     -0.37642300      1.06138500
O         3.88134900      0.93395500      2.74776200
H         4.54687400     -2.03504400      2.95176900
H         2.55470900     -1.09439200      0.05796300
H         2.71254000      0.66840100      0.05505600
H         1.29059500      0.80521800      2.13573600
H         1.14456900     -0.95619500      2.15704400
H        -1.14456900      0.95619500      2.15704400
H        -1.29059500     -0.80521800      2.13573600
H        -2.71254000     -0.66840100      0.05505600
H        -2.55470900      1.09439200      0.05796300
H        -4.74430100     -1.35365000      2.88260800
H        -4.54687400      2.03504400      2.95176900
H        -0.08306300     -2.86179100      0.96628100
H         0.04226400     -3.77502200     -3.25067100
H         0.00281000     -1.35758600     -3.80107400
H        -0.00281000      1.35758600     -3.80107400
H        -0.04226400      3.77502200     -3.25067100
H         0.08306300      2.86179100      0.96628100
H        -1.18755600      7.17287900     -1.55404900
H        -0.09572400      8.92108900     -2.96410300
H         3.42940900      6.45645200     -3.26070300
H         2.36116200      4.75386800     -1.83944600
H         3.72746300      9.59647700     -5.08296500
H         3.61797800      7.80907300     -5.16739500
H         4.29006400      8.59984700     -3.70321200
H        -2.46478600      3.85340000     -0.05075400
H        -3.71810600      4.37893700      1.98562100
H        -0.74573200      7.31415100      3.06400600
H         0.56532600      6.71666400      1.02246500
H        -4.41852400      6.00800200      5.16451700
H        -3.93117000      4.50178600      4.32090600
H        -4.92066200      5.73360700      3.46583000
H        -0.56532600     -6.71666400      1.02246500
H         0.74573200     -7.31415100      3.06400600
H         3.71810600     -4.37893700      1.98562100
H         2.46478600     -3.85340000     -0.05075400
H         4.41852400     -6.00800200      5.16451700
H         3.93117000     -4.50178600      4.32090600
H         4.92066200     -5.73360700      3.46583000
H         1.18755600     -7.17287900     -1.55404900
H         0.09572400     -8.92108900     -2.96410300
H        -3.42940900     -6.45645200     -3.26070300
H        -2.36116200     -4.75386800     -1.83944600
H        -3.72746300     -9.59647700     -5.08296500
H        -3.61797800     -7.80907300     -5.16739500
H        -4.29006400     -8.59984700     -3.70321200
H         4.74430100      1.35365000      2.88260800
