83
COc1ccc(-c2ccc(N(c3ccc(-c4ccc(C(=O)O)cc4)cc3)c3ccc(-c4ccc(OC)cc4OC)cc3)cc2)c(OC)c1
C         5.22969000     -9.35566100      0.01220800
O         4.89694800     -8.49343300      1.07333900
C         4.20193200     -7.35756800      0.81267400
C         3.78445300     -6.97838600     -0.47159300
C         3.06365500     -5.78760300     -0.65384600
O         2.65360400     -5.37174500     -1.88064100
C         2.98339100     -6.12420100     -3.02246000
C         2.74524700     -4.95092600      0.44177900
C         2.00775500     -3.67347500      0.28793200
C         2.40636900     -2.53446100      1.01173400
C         1.70610900     -1.33332600      0.93002700
C         0.58014500     -1.22440400      0.10017600
N        -0.12621500      0.00069400     -0.00023500
C        -1.53312500      0.01294600     -0.00433800
C        -2.24566800      0.95008400     -0.77600600
C        -3.63610600      0.96018100     -0.77293300
C        -4.38002300      0.03813900     -0.01262400
C       -10.17160500      0.10829600     -0.07968700
O       -10.75346900     -0.26920700      1.08115800
O       -10.82300500      0.43209400     -1.04686300
C        -3.65696600     -0.89702000      0.75181800
C        -2.26659500     -0.91147800      0.76307700
C         0.60116200      1.21376600     -0.09866900
C         0.21790500      2.34449900      0.64106800
C         0.93426000      3.53334400      0.54345100
C         2.06850400      3.63926800     -0.28388600
C         2.82614000      4.90493000     -0.43736300
C         3.15718900      5.73664300      0.65826700
O         2.74048600      5.32726900      1.88504800
C         3.08143500      6.07489200      3.02673100
C         3.89631600      6.91614200      0.47611000
C         4.31981400      7.28878900     -0.80810400
O         5.03219900      8.41384100     -1.06869400
C         5.37683100      9.27160700     -0.00774200
C         4.00401900      6.47952700     -1.90667300
C         3.27227300      5.31477100     -1.70547900
C         2.44920200      2.49429800     -1.00794400
C         1.72949600      1.30462100     -0.92738600
C         0.17905200     -2.34929200     -0.63911200
C         0.87589400     -3.54957300     -0.54017000
C         3.18466300     -5.36771800      1.70996900
C         3.89833000     -6.54365100      1.91123000
H         5.77945700    -10.19838000      0.45199900
H         4.33077000     -9.74440200     -0.50015400
H         5.87570800     -8.85951100     -0.73489600
H         4.02160400     -7.60106700     -1.32893600
H         2.54467600     -7.13792800     -2.98969800
H         2.56587400     -5.58420500     -3.88256200
H         4.07679100     -6.21491900     -3.15279100
H         3.29180700     -2.58889600      1.64879700
H         2.03719800     -0.46495500      1.50188200
H        -1.69768900      1.67787500     -1.37544700
H        -4.15665800      1.71424500     -1.36664200
H       -11.71198500     -0.21192100      0.93321300
H        -4.19422700     -1.64202800      1.34214000
H        -1.73501500     -1.64894800      1.36548000
H        -0.65540400      2.28566000      1.29288700
H         0.61450300      4.39714900      1.12509200
H         2.65518400      5.54178200      3.88685300
H         4.17605600      6.14864000      3.15754900
H         2.65858300      7.09532000      2.99338400
H         4.14289400      7.53513200      1.33347300
H         5.93915000     10.10598000     -0.44757400
H         4.48334400      9.67368300      0.50382000
H         6.01504500      8.76643600      0.74002900
H         4.33226200      6.78702000     -2.90019900
H         3.01305600      4.69817800     -2.56864600
H         3.33572900      2.53482300     -1.64453300
H         2.04670500      0.43132600     -1.49961200
H        -0.69244100     -2.27666300     -1.29194800
H         0.54264900     -4.40829800     -1.12175500
H         2.93491900     -4.74718100      2.57310700
H         4.22167300     -6.85620600      2.90478700
C        -5.85928500      0.05165400     -0.01711500
C        -6.58037200      0.43335000     -1.16717300
C        -6.59367800     -0.31622700      1.12801800
C        -7.97026300      0.44775900     -1.17200300
H        -6.03942100      0.69724700     -2.07767900
C        -7.98519700     -0.30579600      1.12770500
H        -6.06254900     -0.58988100      2.04142700
C        -8.68817200      0.07788300     -0.02464800
H        -8.52780600      0.73540000     -2.06502900
H        -8.53807400     -0.58565500      2.02494000
