55
COc1ccc(N(c2ccc(OC)cc2)c2ccc(-c3ccc(C(=O)O)cc3)cc2)cc1
C        -4.54633400      0.50105900     -1.07423400
C        -3.81403200     -0.00937100      0.01658500
C        -4.53826100     -0.52323000      1.11219300
C        -5.92813900     -0.52743800      1.11689300
C        -6.64366400     -0.01491800      0.02415000
C        -5.93783900      0.50097700     -1.07360100
C        -8.12704900     -0.04046400      0.07695700
C        -2.33509100     -0.00652300      0.01221500
C        -1.60361600      1.00312400     -0.64127200
C        -0.21347000      1.00962300     -0.65206100
C         0.51651500     -0.00172100      0.00372800
C        -0.20615000     -1.01539200      0.66397900
C        -1.59635800     -1.01355100      0.66160200
N         1.92002500      0.00066600     -0.00062400
C         2.64938000     -1.21707100      0.04804800
C         3.74305800     -1.35707400      0.92117100
C         4.47240000     -2.53823800      0.96021600
C         4.11915700     -3.62328600      0.13984100
C         3.02682400     -3.49398000     -0.73044200
C         2.31188000     -2.29413500     -0.77955900
C         2.64466900      1.22109700     -0.05239700
C         2.30920900      2.29550400      0.77947500
C         3.01982700      3.49780900      0.72772800
C         4.10573300      3.63235500     -0.14977500
C         4.45689700      2.55006400     -0.97468300
C         3.73177700      1.36639000     -0.93281500
H        -3.99959000     -0.90058800      1.98324600
H        -6.48768900     -0.91750700      1.96884600
H        -2.13491500      1.81453700     -1.14270000
H         0.32057200      1.80810800     -1.16782600
H         0.33361300     -1.81191700      1.17680000
H        -2.12187400     -1.82647400      1.16662200
H         4.01939700     -0.52290700      1.56831900
H         5.32363800     -2.65427700      1.63347700
H         2.73029600     -4.31220400     -1.38611700
H         1.47107600     -2.19587000     -1.46839800
H         1.47358600      2.19306300      1.47399300
H         2.72521400      4.31375200      1.38710000
H         5.30317000      2.67017700     -1.65346800
H         4.00646000      0.53425000     -1.58328400
H        -6.48876600      0.89190800     -1.92956400
H        -4.01387900      0.88029200     -1.94831500
O        -8.70654100      0.47869300     -1.02912000
H        -9.66537200      0.41135800     -0.88765200
O        -8.78059100     -0.47373100      0.99885000
O         4.86541900      4.75093700     -0.26930000
O         4.88326500     -4.73915600      0.25636800
C         4.56816600      5.86457600      0.53915200
H         4.66240100      5.62869400      1.61475000
H         5.29657300      6.64458900      0.28076800
H         3.54935900      6.24948000      0.35074800
C         4.58325600     -5.85587400     -0.54679700
H         4.66913000     -5.62278300     -1.62371100
H         5.31563400     -6.63317000     -0.29147200
H         3.56689500     -6.24300100     -0.34996300
