98
Cc1cccc(N(c2ccc(-c3ccc(C(=O)O)cc3)cc2)c2ccc(-c3ccc(N(c4ccc(-c5ccc(C(=O)O)cc5)cc4)c4cccc(C)c4)cc3)cc2)c1
C         0.48486400     10.72578500      5.94372700
O        -0.04485800     11.96661900      5.86015500
O         1.14398400     10.37195200      6.89464700
C         0.16965400      9.87777600      4.76546800
C         0.66383700      8.56510300      4.73774000
C         0.39268400      7.73446900      3.65653500
C        -0.37776000      8.18695700      2.56595200
C        -0.66383700      7.30353700      1.41469700
C        -1.86965800      7.40509800      0.69496400
C        -2.14655600      6.57315800     -0.38412700
C        -1.21211400      5.60822600     -0.80236500
C        -0.00038900      5.50208800     -0.09579000
C         0.25891400      6.32767400      0.99280300
N        -1.48335300      4.77131600     -1.90327800
C        -1.05906200      3.42200600     -1.89822500
C        -0.51916900      2.83721700     -3.05568200
C        -0.11506200      1.50580300     -3.05204000
C        -0.21846400      0.70661000     -1.89766800
C         0.21846400     -0.70661000     -1.89766800
C         0.75617000     -1.30765200     -0.74345400
C         1.17565900     -2.63427900     -0.74075600
C         1.05906200     -3.42200600     -1.89822500
C         0.51916900     -2.83721700     -3.05568200
C         0.11506200     -1.50580300     -3.05204000
N         1.48335300     -4.77131600     -1.90327800
C         2.17709100     -5.28051300     -3.03138000
C         1.85618400     -6.54329600     -3.54933100
C         2.53366200     -7.06857000     -4.65747800
C         3.53378400     -6.29389700     -5.26268300
C         3.85056700     -5.02880000     -4.75888300
C         3.18697900     -4.52067500     -3.64422500
C         2.18571300     -8.44161200     -5.17546900
C         1.21211400     -5.60822600     -0.80236500
C         2.14655600     -6.57315800     -0.38412700
C         1.86965800     -7.40509800      0.69496400
C         0.66383700     -7.30353700      1.41469700
C         0.37776000     -8.18695700      2.56595200
C        -0.39268400     -7.73446900      3.65653500
C        -0.66383700     -8.56510300      4.73774000
C        -0.16965400     -9.87777600      4.76546800
C         0.60020900    -10.34244000      3.68837500
C         0.86608100     -9.50802000      2.60675700
C        -0.48486400    -10.72578500      5.94372700
O         0.04485800    -11.96661900      5.86015500
O        -1.14398400    -10.37195200      6.89464700
C        -0.25891400     -6.32767400      0.99280300
C         0.00038900     -5.50208800     -0.09579000
C        -0.75617000      1.30765200     -0.74345400
C        -1.17565900      2.63427900     -0.74075600
C        -2.17709100      5.28051300     -3.03138000
C        -3.18697900      4.52067500     -3.64422500
C        -3.85056700      5.02880000     -4.75888300
C        -3.53378400      6.29389700     -5.26268300
C        -2.53366200      7.06857000     -4.65747800
C        -1.85618400      6.54329600     -3.54933100
C        -2.18571300      8.44161200     -5.17546900
C        -0.86608100      9.50802000      2.60675700
C        -0.60020900     10.34244000      3.68837500
H         0.22036500     12.42944600      6.67224500
H         1.25349600      8.21251000      5.58566600
H         0.76034700      6.70684700      3.66562600
H        -2.62714100      8.12463500      1.01203500
H        -3.09869900      6.65898600     -0.90932200
H         0.74380100      4.77135200     -0.41503400
H         1.22059300      6.23956500      1.50216700
H        -0.41104100      3.43981300     -3.95876600
H         0.32778400      1.08734300     -3.95808500
H         0.88688700     -0.71183700      0.16214400
H         1.61018500     -3.06834600      0.16103500
H         0.41104100     -3.43981300     -3.95876600
H        -0.32778400     -1.08734300     -3.95808500
H         1.06207300     -7.12354000     -3.07469200
H         4.06606900     -6.68353900     -6.13387200
H         4.63430700     -4.43485700     -5.23547700
H         3.43965800     -3.53793700     -3.24366400
H         1.09525000     -8.58099700     -5.24323000
H         2.61568800     -8.61881500     -6.17206500
H         2.56975900     -9.22685400     -4.50195000
H         3.09869900     -6.65898600     -0.90932200
H         2.62714100     -8.12463500      1.01203500
H        -0.76034700     -6.70684700      3.66562600
H        -1.25349600     -8.21251000      5.58566600
H         0.97900600    -11.36483000      3.70149800
H         1.44117900     -9.89457100      1.76350900
H        -0.22036500    -12.42944600      6.67224500
H        -1.22059300     -6.23956500      1.50216700
H        -0.74380100     -4.77135200     -0.41503400
H        -0.88688700      0.71183700      0.16214400
H        -1.61018500      3.06834600      0.16103500
H        -3.43965800      3.53793700     -3.24366400
H        -4.63430700      4.43485700     -5.23547700
H        -4.06606900      6.68353900     -6.13387200
H        -1.06207300      7.12354000     -3.07469200
H        -2.61568800      8.61881500     -6.17206500
H        -2.56975900      9.22685400     -4.50195000
H        -1.09525000      8.58099700     -5.24323000
H        -1.44117900      9.89457100      1.76350900
H        -0.97900600     11.36483000      3.70149800
