104
O=C(O)c1ccc(-c2ccc(N(c3ccc(-c4ccc(N(c5ccc(-c6ccc(C(=O)O)cc6)cc5)c5cccc6ccccc56)cc4)cc3)c3cccc4ccccc34)cc2)cc1
C         1.54587800     10.73384300      6.42593200
O         1.34838500     12.05707200      6.23302600
O         1.93570800     10.29027400      7.48196300
C         1.23653200      9.91764400      5.22387900
C         1.40340000      8.52690300      5.30222600
C         1.12496200      7.72246600      4.20319300
C         0.67348900      8.27941300      2.98934600
C         0.37970000      7.42252700      1.82004200
C        -0.64015300      7.75273700      0.90711800
C        -0.92650200      6.94472700     -0.18718700
C        -0.18801500      5.77091700     -0.42391500
C         0.84343700      5.43792100      0.47218200
C         1.10986700      6.24480600      1.57369500
N        -0.47690200      4.97292800     -1.54938500
C        -0.31268300      3.57110800     -1.53064400
C         0.11090600      2.88567600     -2.68117700
C         0.22447800      1.49818500     -2.67707600
C        -0.06381600      0.73665900     -1.53039800
C         0.06381600     -0.73665900     -1.53039800
C         0.48328400     -1.43667600     -0.38261000
C         0.61614500     -2.82089400     -0.37966800
C         0.31268300     -3.57110800     -1.53064400
C        -0.11090600     -2.88567600     -2.68117700
C        -0.22447800     -1.49818500     -2.67707600
N         0.47690200     -4.97292800     -1.54938500
C         0.78967300     -5.61981100     -2.77999900
C        -0.09587100     -6.53836600     -3.31545100
C         0.18801500     -7.19343500     -4.53490100
C         1.34838500     -6.91017300     -5.22249000
C         2.28682300     -5.97607600     -4.70457700
C         3.49986400     -5.68089200     -5.38669500
C         4.41588400     -4.79949600     -4.85538300
C         4.16148700     -4.17765400     -3.60807900
C         2.99268400     -4.43403900     -2.92321000
C         2.02065800     -5.32671600     -3.45231300
C         0.18801500     -5.77091700     -0.42391500
C         0.92650200     -6.94472700     -0.18718700
C         0.64015300     -7.75273700      0.90711800
C        -0.37970000     -7.42252700      1.82004200
C        -0.67348900     -8.27941300      2.98934600
C        -1.12496200     -7.72246600      4.20319300
C        -1.40340000     -8.52690300      5.30222600
C        -1.23653200     -9.91764400      5.22387900
C        -0.78658200    -10.48697800      4.02293600
C        -0.51167600     -9.67756100      2.92462100
C        -1.54587800    -10.73384300      6.42593200
O        -1.34838500    -12.05707200      6.23302600
O        -1.93570800    -10.29027400      7.48196300
C        -1.10986700     -6.24480600      1.57369500
C        -0.84343700     -5.43792100      0.47218200
C        -0.48328400      1.43667600     -0.38261000
C        -0.61614500      2.82089400     -0.37966800
C        -0.78967300      5.61981100     -2.77999900
C        -2.02065800      5.32671600     -3.45231300
C        -2.28682300      5.97607600     -4.70457700
C        -1.34838500      6.91017300     -5.22249000
C        -0.18801500      7.19343500     -4.53490100
C         0.09587100      6.53836600     -3.31545100
C         0.51167600      9.67756100      2.92462100
C         0.78658200     10.48697800      4.02293600
C        -3.49986400      5.68089200     -5.38669500
C        -4.41588400      4.79949600     -4.85538300
C        -4.16148700      4.17765400     -3.60807900
C        -2.99268400      4.43403900     -2.92321000
H         1.57852600     12.49024400      7.07173300
H         1.74507100      8.09564200      6.24470700
H         1.23234100      6.63980400      4.29075100
H        -1.25030400      8.64172700      1.07865500
H        -1.73675500      7.21106100     -0.86738300
H         1.44622800      4.54708300      0.29270400
H         1.93474800      5.97460700      2.23608100
H         0.35591700      3.44930000     -3.58204100
H         0.57909300      0.99643700     -3.57979600
H         0.75262100     -0.88021900      0.51763200
H         0.97509500     -3.33012400      0.51569400
H        -0.35591700     -3.44930000     -3.58204100
H        -0.57909300     -0.99643700     -3.57979600
H        -1.02389400     -6.74874100     -2.78079100
H        -0.52863400     -7.91394400     -4.93553100
H         1.56684500     -7.40379500     -6.17251500
H         3.69439400     -6.17318300     -6.34299600
H         5.34349500     -4.58277200     -5.39034200
H         4.89850200     -3.49072200     -3.18568900
H         2.80487200     -3.95169300     -1.96478600
H         1.73675500     -7.21106100     -0.86738300
H         1.25030400     -8.64172700      1.07865500
H        -1.23234100     -6.63980400      4.29075100
H        -1.74507100     -8.09564200      6.24470700
H        -0.66435800    -11.56834000      3.95465300
H        -0.19104600    -10.13846500      1.98864100
H        -1.57852600    -12.49024400      7.07173300
H        -1.93474800     -5.97460700      2.23608100
H        -1.44622800     -4.54708300      0.29270400
H        -0.75262100      0.88021900      0.51763200
H        -0.97509500      3.33012400      0.51569400
H        -1.56684500      7.40379500     -6.17251500
H         0.52863400      7.91394400     -4.93553100
H         1.02389400      6.74874100     -2.78079100
H         0.19104600     10.13846500      1.98864100
H         0.66435800     11.56834000      3.95465300
H        -3.69439400      6.17318300     -6.34299600
H        -5.34349500      4.58277200     -5.39034200
H        -4.89850200      3.49072200     -3.18568900
H        -2.80487200      3.95169300     -1.96478600
