39
Cc1ccc2c(c1)c1cc(C)ccc1n2CCP(=O)(O)O
C         2.73531800      3.06629100      0.13679400
C         1.40250400      3.42700800     -0.16775900
C         0.40978300      2.47976300     -0.41322100
C         0.76825400      1.12861300     -0.35347500
C         2.09680400      0.73234700     -0.03821300
C         3.07125400      1.71081800      0.19995400
N        -0.00680800     -0.00632500     -0.56511300
C         0.78213600     -1.13151700     -0.35255500
C         2.10574600     -0.71857100     -0.03771700
C         0.44068900     -2.48710000     -0.41126000
C         1.44517000     -3.42173400     -0.16531400
C         2.77343100     -3.04423200      0.13878800
C         3.09233900     -1.68463500      0.20108200
C        -1.43265300     -0.01415400     -0.77164500
C        -2.21486300     -0.01206600      0.55194100
P        -4.00557900     -0.01076200      0.34745000
O        -4.21206500      1.28379700     -0.62518500
O        -4.21661000     -1.30340500     -0.62692700
O        -4.88479000     -0.01097900      1.54561500
H         1.14103000      4.48809600     -0.21066700
H        -0.61163600      2.79061700     -0.64147700
H         4.09613800      1.41470900      0.43893900
H        -0.57675400     -2.81098100     -0.63910500
H         1.19690800     -4.48602400     -0.20742500
H         4.11341600     -1.37552200      0.43987300
H        -1.71189300      0.86406900     -1.37094700
H        -1.70367500     -0.89999000     -1.36335700
H        -1.96037100     -0.89914600      1.15296300
H        -1.95966500      0.87681300      1.15001800
H        -5.06055100      1.71410600     -0.43982500
H        -5.06093900     -1.73794800     -0.43270800
C         3.81690200     -4.10508200      0.39067900
H         4.79401600     -3.65969000      0.62873600
H         3.53252400     -4.75935500      1.23195600
H         3.95092100     -4.75524000     -0.49036000
C         3.76522300      4.14022200      0.38909600
H         3.47653700      4.78542000      1.23595800
H         4.74980600      3.70721900      0.61910600
H         3.88501400      4.79743200     -0.48869800
