45
Cc1ccc2c(c1)c1cc(C)ccc1n2CCCCP(=O)(O)O
C         3.67846400      3.05517600      0.26005100
C         2.39424900      3.42439800     -0.20250700
C         1.43117100      2.48359100     -0.56282700
C         1.76757200      1.12889200     -0.45936700
C         3.04793600      0.72573000      0.01048300
C         3.99389400      1.69756300      0.36337200
N         1.01465800     -0.00076800     -0.75820400
C         1.76914000     -1.12933900     -0.45918700
C         3.04896600     -0.72431700      0.01052800
C         1.43465900     -2.48452800     -0.56244700
C         2.39910000     -3.42392700     -0.20211100
C         3.68281800     -3.05283500      0.26033500
C         3.99632500     -1.69476700      0.36347500
C        -2.80204200     -0.00194300     -0.38102300
C        -3.76224800     -0.00044500      0.81263500
P        -5.51354300     -0.00037500      0.38068200
O        -6.52792400      0.00150000      1.46866100
O        -5.61545900      1.29104200     -0.61214200
O        -5.61625000     -1.29472500     -0.60854700
C        -0.37715500     -0.00165700     -1.14508500
C        -1.33654100     -0.00099300      0.04907400
H         2.14735700      4.48721700     -0.27757900
H         0.44702400      2.80296500     -0.91079100
H         4.98066400      1.39375300      0.72295900
H         0.45097200     -2.80535000     -0.91037600
H         2.15372700     -4.48710300     -0.27710900
H         4.98268600     -1.38950800      0.72295500
H        -3.00986400     -0.88511000     -1.00778500
H        -3.01030900      0.87934400     -1.01028500
H        -3.60430300      0.88545900      1.44973600
H        -3.60486700     -0.88492500      1.45182900
H        -6.47655600      1.72297400     -0.50636900
H        -6.47819700     -1.72482900     -0.50182800
H        -0.56274700      0.87851000     -1.78129800
H        -0.56201400     -0.88308800     -1.77973300
H        -1.12449000     -0.88354100      0.67646900
H        -1.12520500      0.88280500      0.67494500
C         4.67966800      4.12181600      0.63077800
H         4.28384300      4.79396300      1.41053200
H         5.61360700      3.68203600      1.01053400
H         4.93622500      4.75321000     -0.23686400
C         4.68538800     -4.11802100      0.63155100
H         5.62027100     -3.67678100      1.00726300
H         4.29200100     -4.78776800      1.41462600
H         4.93958900     -4.75213200     -0.23477700
