51
Cc1ccc2c(c1)c1cc(C)ccc1n2CCCCCCP(=O)(O)O
C        -4.61743500      3.08326400      0.34804000
C        -3.36014400      3.42799900     -0.19978100
C        -2.43998200      2.46903000     -0.61941400
C        -2.79269300      1.12074100     -0.48837900
C        -4.04679600      0.74212800      0.06561200
C        -4.94988900      1.73186600      0.47632700
N        -2.08080700     -0.02261000     -0.83068100
C        -2.83416400     -1.13650500     -0.47947000
C        -4.07382400     -0.70752300      0.07051700
C        -2.53206100     -2.49794400     -0.59974000
C        -3.48853200     -3.41878000     -0.17610100
C        -4.73336300     -3.02356300      0.36595100
C        -5.01437100     -1.65980900      0.48578500
C         4.24790000     -0.03426100     -0.17744500
C         5.30045000      0.04821500      0.93256800
P         7.01256800     -0.00216000      0.36901500
O         8.10866300      0.07711000      1.37213300
O         7.03562000     -1.37223500     -0.51787400
O         7.04673700      1.20608700     -0.72859400
C         2.81817100      0.01308100      0.36158100
C         1.75897800     -0.05294200     -0.73869500
C         0.32769800     -0.01706900     -0.20678100
C        -0.72165600     -0.04697000     -1.32157400
H        -3.09968700      4.48601800     -0.29458400
H        -1.47525300      2.76945900     -1.03249000
H        -5.91622000      1.44680300      0.90094300
H        -1.57848200     -2.83759400     -1.00820000
H        -3.26783200     -4.48642300     -0.26358900
H        -5.96995800     -1.33563600      0.90663400
H         4.40744200      0.79521900     -0.88602000
H         4.40054700     -0.96384200     -0.75015000
H         5.19207200     -0.78304300      1.64912900
H         5.19839600      0.98200100      1.51025600
H         7.90678600     -1.79203200     -0.45404600
H         7.91326600      1.63968700     -0.71185200
H         2.66385200     -0.82096000      1.07011500
H         2.67658800      0.93804100      0.94954200
H         1.91292600      0.78697000     -1.44111300
H         1.90879900     -0.97231800     -1.33409100
H         0.15316700     -0.87264300      0.46806300
H         0.17340700      0.89109000      0.40083900
H        -0.58198500      0.81149600     -1.99867300
H        -0.59411900     -0.94887600     -1.94126400
C        -5.73025400     -4.06970000      0.80121800
H        -6.62703800     -3.61135700      1.24346800
H        -6.05794000     -4.69264000     -0.04843900
H        -5.29760700     -4.75267600      1.55139800
C        -5.57152800      4.16887500      0.78263500
H        -5.86852500      4.80865600     -0.06571100
H        -6.48877800      3.74698400      1.21911500
H        -5.11389800      4.82978600      1.53781100
