43
Cc1ccc2c(c1)c1cc(C)ccc1n2-c1ccc(P(=O)(O)O)cc1
C        -3.76642300     -3.01984000      0.10600300
C        -2.40912500     -3.41451300      0.12724500
C        -1.36211100     -2.49586000      0.08740600
C        -1.68628000     -1.13657200      0.01794400
C        -3.03880400     -0.70830700      0.01454100
C        -4.06941900     -1.65707600      0.05515200
N        -0.85225300     -0.00998600     -0.00195800
C        -1.65825600      1.13651500     -0.01999200
C        -3.02102000      0.74157400     -0.01343500
C        -1.30147100      2.48760800     -0.08953900
C        -2.32580900      3.43176700     -0.12644400
C        -3.69221100      3.07037600     -0.10254800
C        -4.02809500      1.71527800     -0.05137600
C         0.55672300     -0.02748100     -0.00712200
C         3.36054100     -0.06071500     -0.01235500
P         5.15376600     -0.10360500     -0.08140000
O         5.72584800     -1.00496000     -1.11550300
O         5.65457500      1.44641800     -0.22740900
O         5.52366300     -0.38355900      1.47203600
C         2.64401300     -0.85538200     -0.91748200
C         1.25057200     -0.83393000     -0.92182500
C         1.27544600      0.76303200      0.90636400
C         2.66693600      0.75293200      0.89724100
H        -2.17098400     -4.48046600      0.18091600
H        -0.32595500     -2.83377900      0.11966200
H        -5.11230000     -1.32944300      0.05308200
H        -0.25741800      2.80017800     -0.12378000
H        -2.06179200      4.49165700     -0.17995300
H         5.93998400      1.61532200     -1.13760400
H         6.48222500     -0.38881600      1.61868800
H         3.19349900     -1.47933000     -1.62539100
H         0.69155300     -1.42972500     -1.64430600
H         0.73239500      1.36906900      1.63252500
H         3.21808800      1.36625300      1.61298300
H        -5.07864000      1.41314700     -0.04688200
C        -4.85510800     -4.06373000      0.14098500
H        -5.85306900     -3.60332100      0.18350900
H        -4.82206600     -4.70916000     -0.75313800
H        -4.75114300     -4.72456700      1.01758200
C        -4.75532600      4.14036800     -0.13623400
H        -5.76451500      3.70417500     -0.16702200
H        -4.69898900      4.79149300      0.75253300
H        -4.64291300      4.79183000     -1.01885100
