43
Cc1ccc2c(c1)c1cc(C)ccc1n2-c1cccc(P(=O)(O)O)c1
C        -4.32137600     -2.17646700      0.55066500
C        -3.18748600     -3.00271100      0.37652600
C        -1.92718200     -2.48959400      0.07619900
C        -1.80038200     -1.10284000     -0.05974200
C        -2.91595700     -0.24575000      0.12767900
C        -4.17052500     -0.79292500      0.42868200
N        -0.66845300     -0.32343600     -0.32793200
C        -1.04559400      1.02610300     -0.31257400
C        -2.43462800      1.11249600     -0.03566100
C        -0.28633900      2.17612000     -0.55694400
C        -0.93470000      3.40818800     -0.49995800
C        -2.31353900      3.52822600     -0.21138800
C        -3.05669800      2.36738800      0.01569600
C         0.63140900     -0.80687500     -0.58591300
C         3.22720800     -1.73383500     -1.13374200
P         4.45862200      0.02315100      0.59341600
O         5.76758900     -0.57403200      0.22271100
O         4.36984000      1.62691300      0.27993600
O         4.01029400     -0.00007700      2.15009100
C         2.12796200     -2.28689200     -1.79582800
C         0.83968700     -1.81909100     -1.53818400
C         1.72720200     -0.26558300      0.09568900
C         3.02097500     -0.71649900     -0.19357300
H        -3.30224200     -4.08475800      0.48581400
H        -1.06953000     -3.15341800     -0.03746300
H        -5.03149300     -0.13517100      0.57369100
H         0.77835600      2.11986500     -0.78590900
H        -0.35413200      4.31609900     -0.68583400
H         5.03476800      1.86891700     -0.38177800
H         4.65658900      0.44226500      2.72178900
H         2.27759000     -3.07728500     -2.53483900
H        -0.01522800     -2.22313100     -2.08220700
H         1.56583500      0.50173300      0.85316800
H        -4.12633500      2.43732100      0.23000300
C        -5.66213600     -2.79379600      0.86334000
H        -6.42702600     -2.02451300      1.04458600
H        -6.01627600     -3.42827800      0.03308800
H        -5.61102400     -3.43572300      1.75843600
C        -2.95479400      4.89282500     -0.15502600
H        -4.03240800      4.82297100      0.05364900
H        -2.50077100      5.51810300      0.63216800
H        -2.83096100      5.43560300     -1.10709700
H         4.24370400     -2.07717300     -1.33454300
