66
Cc1ccc2c(c1)C1(c3ccccc3-c3ccccc31)c1cc(C)ccc1N2CCCCP(=O)(O)O
O         8.35826900      0.00029900     -1.18825100
P         7.24812600      0.00001500     -0.19799400
O         7.25970800     -1.29357200      0.79752600
O         7.25976500      1.29297100      0.79834400
C         5.54387600      0.00024200     -0.78835100
C         4.47762900      0.00002900      0.31109000
C         3.05698900      0.00018000     -0.24993000
C         2.00243200      0.00007300      0.86405900
N         0.62371700      0.00004800      0.40459000
C         0.00733000      1.21656400      0.07085900
C         0.72895800      2.42567000      0.03246900
C         0.10401000      3.62770700     -0.29700900
C        -1.25707200      3.67834700     -0.61296600
C        -1.96746700      2.47214400     -0.57190400
C        -1.37166000      1.25605600     -0.23318500
C        -1.37160800     -1.25605800     -0.23316900
C        -1.96735100     -2.47216200     -0.57191900
C        -1.25687800     -3.67832200     -0.61307300
C         0.10423200     -3.62759600     -0.29727700
C         0.72911900     -2.42553400      0.03225000
C         0.00739700     -1.21649400      0.07082000
C        -2.22294100     -0.00001700     -0.06610600
C        -3.44649900     -0.00005000     -0.98016700
C        -4.63860500     -0.00005300     -0.22941100
C        -4.29264500     -0.00002700      1.19985300
C        -2.88860100     -0.00001200      1.32185000
C        -5.09991600     -0.00001400      2.34080100
C        -4.48871700      0.00001400      3.59916600
C        -3.09224800      0.00002900      3.71478600
C        -2.28139700      0.00001600      2.57195900
C        -3.48113300     -0.00007600     -2.36970100
C        -4.72391300     -0.00010300     -3.01602100
C        -5.91238200     -0.00010400     -2.27270600
C        -5.87941200     -0.00007900     -0.87462600
H         8.12818000     -1.72286500      0.77136200
H         8.12828800      1.72218300      0.77252500
H         5.44626800      0.88557800     -1.43834300
H         5.44618700     -0.88478000     -1.43875900
H         4.62692000     -0.88208900      0.95591700
H         4.62696600      0.88185900      0.95629900
H         2.90710900      0.87966300     -0.89707400
H         2.90702200     -0.87910900     -0.89732000
H         2.14713600     -0.87586100      1.51364000
H         2.14707600      0.87593300      1.51375400
H         1.79499800      2.44178400      0.24894700
H         0.69962900      4.54438500     -0.31588200
H        -3.03658900      2.47926300     -0.79435100
H        -3.03647400     -2.47933000     -0.79436100
H         0.69993200     -4.54421700     -0.31634400
H         1.79519600     -2.44157200      0.24854300
H        -6.18920900     -0.00002400      2.25435400
H        -5.10580900      0.00002700      4.50090200
H        -2.63176100      0.00005200      4.70567500
H        -1.19289800      0.00003000      2.65979500
H        -2.55211200     -0.00007500     -2.94424400
H        -4.76826600     -0.00012200     -4.10771600
H        -6.87410600     -0.00012500     -2.79142800
H        -6.80792700     -0.00008200     -0.29870400
C        -1.94548700      4.96713100     -0.98368900
H        -2.31297300      4.94230300     -2.02365100
H        -2.82011800      5.15553600     -0.33942500
H        -1.26667600      5.82764700     -0.88975300
C        -1.94539800     -4.96721400     -0.98322700
H        -2.81605900     -5.15865200     -0.33444700
H        -2.31886400     -4.94028600     -2.02097500
H        -1.26476400     -5.82691900     -0.89526100
