57
Cc1ccc(-c2ccc3c(c2)c2cc(-c4ccc(C)s4)ccc2n3-c2ccc(P(=O)(O)O)cc2)s1
C        -1.69249800     -3.03785900      0.10398900
C        -0.33129700     -3.43433900      0.11967400
C         0.71252300     -2.51436500      0.08689100
C         0.38987100     -1.15482900      0.01861200
C        -0.96379500     -0.72634100      0.01157800
C        -1.99465600     -1.66753700      0.05540000
C        -0.94442600      0.72465700     -0.01446300
C        -1.94986000      1.69290600     -0.05695200
C        -1.61177500      3.05488600     -0.10491700
C        -0.24061400      3.41512800     -0.12112900
C         0.77846400      2.46761800     -0.09002800
C         0.42030300      1.11693900     -0.02254900
N         1.22332200     -0.02972900     -0.00233700
C         2.63388200     -0.04883500     -0.00741400
C         3.35173300      0.72836700      0.91731800
C         4.74337800      0.71642800      0.90842900
C         5.43558900     -0.08570000     -0.01225200
C         4.71889900     -0.86707700     -0.92862300
C         3.32532900     -0.84373100     -0.93321200
P         7.22969200     -0.13059300     -0.08140700
O         7.73165500      1.41995800     -0.21183500
O         7.59650900     -0.42681400      1.46932700
O         7.79881200     -1.02266800     -1.12485800
H        -0.09171100     -4.49859400      0.14178600
H         1.74819500     -2.85406500      0.10939200
H        -3.03478600     -1.33480700      0.07353200
H        -2.99841800      1.38771700     -0.07443700
H         0.02709000      4.47272500     -0.14229800
H         1.82279100      2.77978100     -0.11284300
H         2.80879900      1.32515700      1.65132300
H         5.29535800      1.31899100      1.63255200
H         5.26812400     -1.48217600     -1.64440800
H         2.76530700     -1.42893700     -1.66366900
H         8.01998500      1.59789000     -1.11943400
H         8.55458300     -0.43245700      1.61930300
C        -2.75135400     -4.05180500      0.14925600
C        -2.69528400     -5.34506800      0.62468700
S        -4.35706900     -3.71094100     -0.46342100
C        -3.92943700     -6.04934600      0.50587400
H        -1.79815000     -5.77226000      1.07369400
C        -4.93674100     -5.30543900     -0.06025600
H        -4.07509600     -7.07933400      0.83672200
C        -2.64358900      4.09639700     -0.14879800
C        -2.55420900      5.38790100     -0.62394300
S        -4.25695000      3.79757800      0.46554300
C        -3.76935000      6.12430100     -0.50347700
H        -1.64674900      5.79143600     -1.07410700
C        -4.79515500      5.40683600      0.06357900
H        -3.88838900      7.15778600     -0.83404300
C        -6.19956600      5.84315900      0.34153500
H        -6.33370800      6.88910600      0.02921100
H        -6.93640700      5.22981100     -0.20354300
H        -6.44725500      5.77547200      1.41401800
C        -6.35223600     -5.70549300     -0.33661000
H        -6.51258100     -6.74761000     -0.02388900
H        -7.07255800     -5.07346200      0.20921200
H        -6.59932100     -5.63171500     -1.40883400
