41
COc1ccc2c(c1)c1cc(OC)ccc1n2CCP(=O)(O)O
C        -2.44282000     -3.04445100      0.09217300
C        -1.12137300     -3.43436800     -0.20972700
C        -0.12675900     -2.48130200     -0.45755000
C        -0.47054600     -1.13112700     -0.40271800
C        -1.79928700     -0.72630400     -0.08516900
C        -2.78238000     -1.68666600      0.15606900
N         0.31220600     -0.00003500     -0.62096600
C        -0.47043700      1.13112600     -0.40270800
C        -1.79921200      0.72643200     -0.08514400
C        -0.12651900      2.48126800     -0.45754700
C        -1.12103100      3.43443100     -0.20969600
C        -2.44251200      3.04464100      0.09222700
C        -2.78220600      1.68688900      0.15611400
C         1.74007000     -0.00009800     -0.79977400
C         2.49857000      0.00008200      0.53857100
P         4.29234800     -0.00013900      0.36921000
O         4.52085300     -1.29411200     -0.59989400
O         4.52107300      1.29371200     -0.59997800
O         5.14984200     -0.00023100      1.58325400
H        -0.85414400     -4.48958800     -0.25274100
H         0.89108400     -2.80330600     -0.68559200
H        -3.81057900     -1.41242100      0.39772300
H         0.89135100      2.80317000     -0.68561400
H        -0.85369900      4.48962500     -0.25270300
H        -3.81043200      1.41274500      0.39776800
H         2.02741100     -0.88202400     -1.39013300
H         2.02747000      0.88162500     -1.39041500
H         2.23206000      0.88812600      1.13298500
H         2.23189700     -0.88770200      1.13329900
H         5.36445800     -1.72438600     -0.39348200
H         5.36504300      1.72351700     -0.39408400
O        -3.45412300      3.92481600      0.34080900
O        -3.45452600     -3.92452700      0.34071800
C        -3.18741900      5.30337300      0.28778100
C        -3.18791000     -5.30310800      0.28787700
H        -2.43289600      5.60919500      1.03626800
H        -2.83677600      5.61949800     -0.71227600
H        -4.13300300      5.81646200      0.50961200
H        -2.43340600     -5.60887600      1.03640400
H        -4.13352800     -5.81610500      0.50977800
H        -2.83729100     -5.61939500     -0.71213800
