44
COc1ccc2c(c1)c1cc(OC)ccc1n2CCCP(=O)(O)O
C        -2.76071000      3.04306300     -0.21135700
C        -1.52131400      3.43424600      0.33647700
C        -0.58971300      2.48210800      0.76571200
C        -0.91223800      1.13069700      0.64481200
C        -2.15759700      0.72592900      0.08255400
C        -3.07892000      1.68502600     -0.33978900
N        -0.18258500      0.00000900      1.00289400
C        -0.91217400     -1.13070300      0.64476400
C        -2.15755400     -0.72598200      0.08251800
C        -0.58957600     -2.48210000      0.76561800
C        -1.52112300     -3.43427400      0.33634300
C        -2.76054200     -3.04313900     -0.21147300
C        -3.07882600     -1.68511400     -0.33985400
C         3.64548800      0.00007800      0.91820800
P         4.93917800      0.00006100     -0.33901300
O         6.36344800      0.00002000      0.08972800
O         4.52469800     -1.29434000     -1.24063800
O         4.52458300      1.29451800     -1.24051400
C         1.17331200      0.00003400      1.49150700
C         2.21704500      0.00004600      0.36925600
H        -1.26855100      4.48973500      0.43039500
H         0.36642100      2.80724700      1.17965500
H        -4.04206200      1.40877500     -0.77207300
H         0.36657600     -2.80720000      1.17954900
H        -1.26829200     -4.48975200      0.43020300
H        -4.04198900     -1.40890300     -0.77211900
H         3.83435600     -0.88549600      1.54806400
H         3.83434200      0.88566700      1.54804400
H         5.31834100     -1.71802300     -1.60093000
H         5.31810900      1.71757400     -1.60180800
H         1.31126400      0.88128500      2.13928000
H         1.31128800     -0.88119800      2.13930300
H         2.06401800     -0.88364700     -0.26927600
H         2.06397100      0.88372500     -0.26928300
O        -3.70864800      3.92201300     -0.64692000
O        -3.70841400     -3.92212300     -0.64711000
C        -3.45662000      5.30062100     -0.54921200
H        -2.57273100      5.60398500     -1.14074700
H        -4.34215400      5.81260600     -0.94970900
H        -3.30365500      5.62134700      0.49812200
C        -3.45655300     -5.30072800     -0.54892300
H        -4.34216300     -5.81274500     -0.94921000
H        -2.57272600     -5.60441800     -1.14038600
H        -3.30358500     -5.62109400      0.49852000
