49
COc1ccc2c(c1)c1c3ccccc3ccc1n2CCCCP(=O)(O)O
C        -3.08872000     -2.96979200     -0.04488400
C        -1.78032700     -3.35971800     -0.46763000
C        -0.80112400     -2.43649000     -0.75281200
C        -1.11831600     -1.06394600     -0.61917400
C        -2.39138600     -0.61927000     -0.19645800
C        -3.41277200     -1.57534500      0.09701900
N        -0.29739800      0.02380200     -0.86107500
C        -1.00517500      1.18434000     -0.56992100
C        -2.32821600      0.83019200     -0.16152200
C        -0.59170100      2.51446500     -0.63274700
C        -1.50502600      3.51733900     -0.29709200
C        -2.81780300      3.18767600      0.10011900
C        -3.22818700      1.85168400      0.16852400
C         3.50171500     -0.13935200     -0.36123100
C         4.42411400     -0.19896600      0.86015300
P         6.18639500     -0.25709800      0.47960000
O         7.16797900     -0.31607400      1.59551800
O         6.26784400     -1.53420400     -0.53356400
O         6.36550700      1.05033900     -0.48132000
C         1.10600400     -0.03373800     -1.20087300
C         2.02433800     -0.09167300      0.02330600
H        -1.56422300     -4.42687400     -0.56140600
H         0.19244600     -2.75711300     -1.07008000
H         0.42264200      2.78197000     -0.93392900
H        -1.18446000      4.55719400     -0.34531300
H         3.76194700      0.74621500     -0.96457900
H         3.69592000     -1.01644400     -1.00077000
H         4.21453900     -1.08981200      1.47510100
H         4.28063300      0.67912800      1.51134900
H         7.11185500     -1.99614000     -0.41713100
H         7.23980900      1.44496800     -0.34289400
H         1.27500200     -0.91118700     -1.84470400
H         1.34910500      0.84696800     -1.81658600
H         1.82548300      0.78702000      0.66025700
H         1.75988400     -0.97741900      0.62593700
C        -4.72326700     -1.23118800      0.52062300
H        -4.99005000     -0.18205400      0.63352500
C        -4.08139500     -3.94273600      0.24188800
C        -5.34693800     -3.57438900      0.65196800
H        -6.10006500     -4.33550800      0.86830900
C        -5.66605300     -2.20466900      0.79108600
H        -3.82334300     -4.99941800      0.13065100
H        -6.66768600     -1.91183700      1.11531300
H        -4.25126700      1.65636100      0.48460100
O        -3.75983300      4.11321800      0.44147500
C        -3.42543200      5.47722600      0.39614700
H        -4.32227300      6.03220200      0.70317700
H        -2.59965500      5.72523400      1.08863200
H        -3.13835200      5.80027900     -0.62174500
