45
COc1ccc2c(c1)sc1c3ccc(CCCCP(=O)(O)O)cc3sc21
C        -6.48851500      0.32569500     -0.00001200
C        -5.08841900      0.36304700     -0.00000600
C        -4.30405700     -0.82199200      0.00000600
C        -4.96709200     -2.06513800      0.00001100
C        -6.35041100     -2.11261000      0.00000400
C        -7.11768500     -0.92364900     -0.00000800
S        -4.10344200      1.82651100     -0.00001000
C        -2.63910200      0.86144300      0.00000400
C        -2.90559800     -0.49619000      0.00001100
C        -1.24156800      1.18777300      0.00000800
C        -0.45712200      0.00204400      0.00001900
S        -1.44409900     -1.46189800      0.00002400
C        -0.57788800      2.42872100      0.00000200
C         0.80879700      2.46507100      0.00000800
C         1.59049900      1.28537200      0.00002000
C         0.94126900      0.04833700      0.00002500
O        -8.46275300     -1.09579500     -0.00001300
C        -9.29573700      0.03986000     -0.00003600
C         3.09997000      1.41590000      0.00003100
C         3.90088500      0.11669700      0.00000500
C         5.40978900      0.36337600      0.00000800
C         6.21816600     -0.93756000     -0.00001700
P         8.00871800     -0.72471700     -0.00001800
O         8.88186100     -1.92954000     -0.00004900
O         8.23495600      0.24486200     -1.29377200
O         8.23496500      0.24480100      1.29378000
H        -7.05894300      1.25330200     -0.00002000
H        -4.38698500     -2.99074700      0.00002000
H        -6.88605500     -3.06307500      0.00000700
H        -1.15665500      3.35534800     -0.00000800
H         1.31831100      3.43253200      0.00000300
H         1.51018300     -0.88183000      0.00003400
H       -10.32998300     -0.32849700     -0.00004500
H        -9.13665500      0.66420600      0.89775900
H        -9.13663100      0.66418700     -0.89784000
H         3.39738600      2.01951300     -0.87691000
H         3.39737700      2.01947200      0.87700500
H         3.63082200     -0.48906400      0.88288800
H         3.63081800     -0.48903000     -0.88289900
H         5.69100400      0.96193100     -0.88194300
H         5.69100600      0.96189800      0.88198000
H         5.98546700     -1.55236300      0.88539700
H         5.98546300     -1.55233100     -0.88545200
H         9.07731300      0.02989200     -1.72207800
H         9.07732400      0.02980900      1.72207200
