53
COc1ccc2c(c1)c1cc(OC)ccc1n2CCCCCCP(=O)(O)O
C         4.34284300     -3.00299200     -0.27639800
C         3.10566300     -3.42514300      0.25333100
C         2.14467800     -2.49677100      0.66955300
C         2.43467200     -1.13718300      0.55439200
C         3.67827800     -0.70176300      0.01037600
C         4.62884000     -1.63754400     -0.39968200
N         1.67334600     -0.02586400      0.90455100
C         2.38205500      1.12206000      0.56290400
C         3.64409100      0.74936900      0.01501100
C         2.02786200      2.46557300      0.68767500
C         2.94254600      3.44113500      0.27490000
C         4.19703000      3.08132700     -0.26028000
C         4.54809700      1.73179800     -0.39111400
C        -2.16503200     -0.06846100      0.76617400
C        -3.21284500     -0.00466200     -0.34510700
P        -7.40694000     -0.01994300     -0.39645900
O        -8.49256000      0.05601300     -1.41118500
O        -7.44100600     -1.38774200      0.49395100
O        -7.45133500      1.19124100      0.69736300
C         0.30945800     -0.05641200      1.37656500
C        -0.72811300     -0.03002400      0.25002300
H         2.87830500     -4.48672800      0.34406400
H         1.19197000     -2.84568600      1.07179200
H         5.59139600     -1.33705000     -0.81692400
H         1.06038700      2.76587500      1.09397700
H         2.66509700      4.49016100      0.37217400
H         5.52305400      1.48012700     -0.81187600
H        -2.32808400      0.77143400      1.46662300
H        -2.31971800     -0.98775300      1.36053100
H        -3.05076600     -0.83959000     -1.05086300
H        -3.06557300      0.91949600     -0.93294400
H        -8.30859600     -1.81187800      0.41254400
H        -8.32081800      1.61881700      0.67866200
H         0.17695600     -0.95907700      1.99471100
H         0.15645700      0.80081100      2.05296800
H        -0.56920900      0.87802700     -0.35660600
H        -0.54415500     -0.88561600     -0.42231100
O         5.31918600     -3.85779000     -0.69808200
O         5.12981800      3.98411000     -0.68050900
C         5.10482400     -5.24214400     -0.59462200
H         4.23771700     -5.57458100     -1.19539500
H         6.00953600     -5.73149000     -0.98039500
H         4.94746000     -5.56077800      0.45275600
C         4.84584100      5.35590600     -0.57729000
H         5.72303200      5.89021900     -0.96693000
H         3.96057500      5.64304600     -1.17495300
H         4.67642600      5.66723700      0.47038600
C        -4.64809800     -0.05168400      0.17905300
H        -4.81511900      0.77864600      0.88490000
H        -4.80668700     -0.98054800      0.75132200
C        -5.68900900      0.02943500     -0.94201500
H        -5.58056100      0.96234800     -1.51993800
H        -5.57331900     -0.80284900     -1.65624200
