62
COc1ccc2c(c1)c1cc(OC)ccc1n2CCCCCCCCCP(=O)(O)O
C        -5.71089000      3.04540200     -0.49615400
C        -4.54498500      3.43484600      0.19565500
C        -3.66921700      2.48164300      0.72739800
C        -3.97347400      1.13004900      0.56404200
C        -5.14487500      0.72726700     -0.14151300
C        -6.01066300      1.68790300     -0.66616300
N        -3.29045400     -0.00042200      1.00187000
C        -3.97537600     -1.12949700      0.56340500
C        -5.14609700     -0.72433600     -0.14192200
C        -3.67340000     -2.48169600      0.72597800
C        -4.55077100     -3.43311100      0.19366900
C        -5.71602400     -3.04130400     -0.49790000
C        -6.01350800     -1.68320500     -0.66712700
C         0.53264100     -0.00322500      1.38500600
C         1.72157100     -0.00346100      0.42394500
P         9.59748500      0.00042000     -0.48784200
O        10.96020700      0.01188600      0.11002100
O         9.30204800     -1.29577100     -1.43370300
O         9.30500100      1.29122700     -1.44528000
C        -2.00243900     -0.00165200      1.65425200
C        -0.82173900     -0.00201900      0.67883400
H        -4.30684100      4.49018500      0.32390600
H        -2.76970100      2.80490200      1.25427000
H        -6.91662800      1.41299800     -1.20888400
H        -2.77443600     -2.80678700      1.25266700
H        -4.31441200     -4.48892700      0.32129900
H        -6.91901400     -1.40645200     -1.20967400
H         0.60035800     -0.88477200      2.04932700
H         0.60144100      0.87756400      2.05022400
H         1.65350800      0.87773000     -0.23985500
H         1.65244800     -0.88389000     -0.24075200
H        10.13666900     -1.68385400     -1.73702100
H        10.13704800      1.75076300     -1.63394700
H        -1.94859300      0.87841000      2.31593500
H        -1.94984400     -0.88241900      2.31508800
H        -0.90537400     -0.88398000      0.02067700
H        -0.90419600      0.88062900      0.02145000
O        -6.60210600      3.92622700     -1.03664100
O        -6.60875000     -3.92031500     -1.03884100
C        -6.36657100      5.30415400     -0.89966500
H        -5.41846800      5.61321500     -1.37813900
H        -7.19842800      5.81836800     -1.40009400
H        -6.34115500      5.61752400      0.16078500
C        -6.37556800     -5.29871500     -0.90256600
H        -7.20833800     -5.81125200     -1.40319800
H        -5.42802500     -5.60916600     -1.38125100
H        -6.35061900     -5.61264500      0.15772900
C         3.07946900     -0.00464200      1.12604300
H         3.14688700     -0.88625000      1.78988200
H         3.14786700      0.87611300      1.79092100
C         4.26687500     -0.00474200      0.16339700
H         4.19929900     -0.88519500     -0.50149700
H         4.20031800      0.87660500     -0.50042700
C         5.62575000     -0.00597400      0.86344500
H         5.69681700     -0.88819700      1.52579600
H         5.69767800      0.87513800      1.52721400
C         6.80402700     -0.00578700     -0.11054300
H         6.74313100     -0.88692800     -0.77030200
H         6.74438400      0.87694500     -0.76840900
C         8.16067500     -0.00740600      0.60137300
H         8.27259000     -0.89463300      1.24665200
H         8.27086100      0.87594100      1.25237300
