47
COc1ccc2c(c1)c1cc(OC)ccc1n2CCCCP(=O)(O)O
C        -3.32227600     -3.04302800      0.18637600
C        -2.04425900     -3.43418300     -0.26424600
C        -1.08165000     -2.48194500     -0.61855900
C        -1.41164000     -1.13024100     -0.52107300
C        -2.69729200     -0.72582600     -0.05721600
C        -3.64894000     -1.68506600      0.29124100
N        -0.65579200     -0.00002200     -0.81972900
C        -1.41159200      1.13023100     -0.52107700
C        -2.69726000      0.72587200     -0.05721800
C        -1.08154200      2.48192000     -0.61856600
C        -2.04410900      3.43420000     -0.26425400
C        -3.32214300      3.04310200      0.18637000
C        -3.64886600      1.68515500      0.29123700
C         3.15557500     -0.00004400     -0.39073700
C         4.10087600     -0.00001700      0.81489400
P         5.85728300     -0.00003000      0.40488100
O         6.85945400     -0.00005900      1.50417200
O         5.97171700     -1.29334200     -0.58458700
O         5.97162000      1.29329200     -0.58456600
C         0.73995000     -0.00004900     -1.18557900
C         1.68476900     -0.00004200      0.02074700
H        -1.78587300     -4.48973700     -0.34084100
H        -0.09724100     -2.80680400     -0.96016600
H        -4.64295900     -1.40886300      0.64694400
H        -0.09711900      2.80673500     -0.96017300
H        -1.78567600      4.48974300     -0.34085000
H        -4.64289800      1.40899700      0.64694200
H         3.37162800      0.88213200     -1.01613100
H         3.37163800     -0.88224100     -1.01610000
H         3.93497600     -0.88528000      1.45082900
H         3.93496900      0.88526800      1.45079600
H         6.83274800     -1.72282000     -0.46852400
H         6.83290200      1.72242200     -0.46908200
H         0.93500100     -0.88065500     -1.81896000
H         0.93502700      0.88053100     -1.81898800
H         1.46513000      0.88307700      0.64474700
H         1.46512800     -0.88314900      0.64476300
O        -4.30182300     -3.92199500      0.54561900
O        -4.30165100      3.92211300      0.54561000
C        -4.04534500     -5.30072200      0.46228900
H        -3.21044300     -5.60835100      1.11919400
H        -4.96011600     -5.81230000      0.79123100
H        -3.81257400     -5.61788500     -0.57132400
C        -4.04510800      5.30082800      0.46228700
H        -4.95985500      5.81244800      0.79123300
H        -3.21019000      5.60841500      1.11919200
H        -3.81232300      5.61798600     -0.57132500
