46
COc1ccc(N(c2ccc(OC)cc2)c2ccc(B(O)O)cc2)cc1
N        -0.27095200     -0.00006900      0.00030900
C        -0.99577100      1.21817500      0.06266600
C        -0.63918200      2.31126500     -0.73598200
C        -1.34994700      3.51305100     -0.67513600
C        -2.45715200      3.62997600      0.17743100
C        -2.82867400      2.53083600      0.96991000
C        -2.10365200      1.34723800      0.92005400
C        -0.99417100     -1.21925000     -0.06220500
C        -0.63592500     -2.31201400      0.73615600
C        -1.34495500     -3.51480600      0.67510400
C        -2.45206400     -3.63314200     -0.17740300
C        -2.82531900     -2.53431600     -0.96949700
C        -2.10199300     -1.34968200     -0.91945400
C         1.13576700      0.00083100      0.00014100
C         1.85707600     -0.98137700     -0.70755100
C         3.24815200     -0.97528100     -0.69790800
C         3.98288100      0.00258600     -0.00008700
C         3.24705800      0.97954200      0.69787100
C         1.85598400      0.98392200      0.70774000
B         5.53991600      0.00354000     -0.00019100
O         6.19134700      0.99062300      0.69602200
O         6.19247000     -0.98285800     -0.69632000
H         0.21424200      2.22349400     -1.41033500
H        -1.03743000      4.34308500     -1.30823900
H        -3.69059500      2.63729700      1.63115100
H        -2.39484300      0.50235300      1.54638700
H         0.21744300     -2.22316000      1.41043900
H        -1.03127500     -4.34448400      1.30809700
H        -3.68721800     -2.64182500     -1.63059600
H        -2.39452900     -0.50505500     -1.54550700
H         1.31417900     -1.74444400     -1.26688300
H         3.78701900     -1.74347700     -1.25814800
H         3.78507600      1.74839300      1.25802800
H         1.31223200      1.74630100      1.26717700
H         7.15401100      0.95046000      0.67174300
H         7.15508900     -0.94159900     -0.67203600
O        -3.21299500     -4.75195600     -0.30230400
O        -3.21982800      4.74763800      0.30198000
C        -2.89187800     -5.88066900      0.47421200
H        -2.95948800     -5.66841500      1.55691800
H        -3.62378200     -6.65833500      0.21798900
H        -1.87670000     -6.25797100      0.25279800
C        -2.90063400      5.87650300     -0.47510800
H        -3.63377900      6.65309700     -0.21917600
H        -1.88600000      6.25546500     -0.25403100
H        -2.96811700      5.66369200     -1.55771000
