50
Cc1ccc(N(c2ccc(C)cc2)c2ccc(/C=C(\C#N)P(=O)(O)O)cc2)cc1
N        -2.17875800     -0.04541200     -0.03664700
C        -3.02060300     -1.19179000      0.00846300
C        -2.77922800     -2.22286000      0.92862400
C        -3.61779900     -3.33475600      0.97175200
C        -4.72768500     -3.44837100      0.11899700
C        -4.96660400     -2.40112300     -0.78325600
C        -4.12537100     -1.29064500     -0.84765300
C        -2.79591200      1.23737600     -0.04801100
C        -2.40983100      2.21028300     -0.98262400
C        -3.02704000      3.45875400     -0.98995600
C        -4.05580900      3.77231700     -0.08623100
C        -4.44257400      2.78387600      0.83001800
C        -3.82075000      1.53529700      0.85881600
C        -0.79119200     -0.17433900     -0.07087200
C         0.04559000      0.84732400      0.43641000
C         1.42425500      0.72628700      0.40181900
C         2.04688900     -0.42440600     -0.13865700
C         1.19948700     -1.44151200     -0.63732900
C        -0.18052000     -1.32801700     -0.61105800
C         3.47459400     -0.64125400     -0.21878700
C         4.52661100      0.15391300      0.14205100
P         6.22937200     -0.42294200     -0.01443800
O         6.07025700     -1.72012400     -0.98722300
O         6.88201000      0.72624200     -0.95511800
O         7.00965800     -0.69995700      1.22041100
C         4.41209100      1.45892100      0.70255700
N         4.36527600      2.52854700      1.15684400
H        -1.93135600     -2.14503400      1.61150300
H        -3.41472600     -4.12687600      1.69775100
H        -5.82566300     -2.45823000     -1.45708900
H        -4.32472700     -0.48713400     -1.55868300
H        -1.62208000      1.98090900     -1.70240200
H        -2.71176800      4.20419800     -1.72527500
H        -5.24167900      2.99752300      1.54477500
H        -4.13096500      0.78041400      1.58329400
H        -0.40366700      1.73956300      0.87208100
H         2.02615300      1.53360200      0.81577200
H         1.64951100     -2.33870800     -1.07029800
H        -0.80099500     -2.12645500     -1.01734500
H         3.76189200     -1.60421300     -0.64889100
H         6.63174500     -2.43501700     -0.64984100
H         7.75733900      0.97372700     -0.61981200
C        -4.70446500      5.13260600     -0.09812000
H        -5.62087200      5.14874800      0.50965100
H        -4.02317800      5.90082100      0.30620100
H        -4.96805300      5.44328100     -1.12176300
C        -5.61562000     -4.66564600      0.15960300
H        -6.61360600     -4.45186000     -0.25099000
H        -5.18536500     -5.49050400     -0.43501200
H        -5.74064600     -5.03926500      1.18767500
