49
CSc1ccc2c(c1)c1c3ccccc3ccc1n2CCCCP(=O)(O)O
C        -2.69268900     -3.37952500     -0.03600000
C        -1.35642200     -3.67633400     -0.44674500
C        -0.44678500     -2.68635300     -0.73775600
C        -0.86660300     -1.34028200     -0.62233900
C        -2.17138800     -0.98535500     -0.21236000
C        -3.12101400     -2.01160800      0.08728500
N        -0.12618900     -0.19678600     -0.87321300
C        -0.91786300      0.90986100     -0.60172700
C        -2.21344700      0.46573600     -0.19588200
C        -0.60177200      2.26715200     -0.68087900
C        -1.58773000      3.20123400     -0.36237200
C        -2.87861200      2.79023200      0.03263000
C        -3.18747500      1.42536100      0.11397300
C         3.67240800     -0.07440200     -0.35850200
C         4.59131400     -0.04997800      0.86666700
P         6.35462200      0.01950000      0.49231200
O         7.33317500      0.04745000      1.61198500
O         6.53522400     -1.25979700     -0.50512200
O         6.43847700      1.32516600     -0.48380700
C         1.27969000     -0.15542000     -1.20789300
C         2.19383700     -0.13088000      0.02030200
H        -1.06125900     -4.72550800     -0.52629700
H         0.56987800     -2.93556100     -1.04568900
H         0.39225900      2.60410700     -0.98040000
H        -1.33902500      4.26011800     -0.42159300
H         3.86915600      0.82011100     -0.97259400
H         3.93361300     -0.94292900     -0.98573000
H         4.44633600     -0.94644000      1.49197000
H         4.37993900      0.82283200      1.50636100
H         7.41083400     -1.65618300     -0.38058000
H         7.28028500      1.78598200     -0.34845000
H         1.51462700     -1.02590200     -1.84020200
H         1.45982100      0.73315500     -1.83363600
H         1.92812300      0.73867600      0.64530200
H         1.99243100     -1.02608800      0.63321600
C        -4.45645500     -1.76269700      0.49938900
H        -4.80426300     -0.73617500      0.59874600
C        -3.61135800     -4.42101700      0.25685700
C        -4.90351700     -4.14426900      0.65539600
H        -5.59875700     -4.95724800      0.87664600
C        -5.32534000     -2.80096500      0.77623500
H        -3.27384600     -5.45643600      0.15967600
H        -6.34812800     -2.58028900      1.09126600
H        -4.19037100      1.12898800      0.42086300
C        -3.46379400      5.54737300      0.14769100
H        -4.25748100      6.27308500      0.37382000
H        -2.60413100      5.74837400      0.80434900
H        -3.16584700      5.66327800     -0.90509500
S        -4.18969400      3.91658200      0.46360100
