47
CSc1ccc2c(c1)c1cc(SC)ccc1n2CCCCP(=O)(O)O
C        -2.97657900     -3.04948700      0.08836700
C        -1.68435800     -3.43134100     -0.33095000
C        -0.71315500     -2.48202900     -0.65915300
C        -1.04680000     -1.12941600     -0.56780200
C        -2.34353300     -0.72600300     -0.13795300
C        -3.30254000     -1.68807100      0.18450600
N        -0.28406600      0.00000600     -0.84346000
C        -1.04681600      1.12941700     -0.56780200
C        -2.34354300      0.72598500     -0.13795200
C        -0.71319000      2.48203400     -0.65915100
C        -1.68440600      3.43133300     -0.33094800
C        -2.97662200      3.04946100      0.08836900
C        -3.30256400      1.68804000      0.18450700
C         3.52292600      0.00003500     -0.37949200
C         4.45885600      0.00004800      0.83301900
P         6.21831600      0.00002300      0.43537500
O         7.21213100     -0.00002900      1.54198800
O         6.33851000     -1.29343800     -0.55308300
O         6.33845100      1.29351600     -0.55303200
C         1.11638000      0.00001600     -1.19600900
C         2.04858000      0.00002400      0.01931300
H        -1.41989100     -4.48571700     -0.40359800
H         0.27997000     -2.80614400     -0.97543200
H        -4.30012200     -1.38490500      0.51213100
H         0.27993100      2.80616300     -0.97543000
H        -1.41995300      4.48571200     -0.40359600
H        -4.30014100      1.38485900      0.51213300
H         3.74374000      0.88214100     -1.00330700
H         3.74375600     -0.88207500     -1.00329900
H         4.28890100     -0.88519900      1.46796600
H         4.28890600      0.88531000      1.46794600
H         7.19943300     -1.72221300     -0.43365300
H         7.19961800      1.72194700     -0.43412300
H         1.31599100     -0.88054800     -1.82773500
H         1.31597800      0.88058200     -1.82773600
H         1.82331100      0.88307800      0.64145200
H         1.82332300     -0.88303200      0.64145400
C        -3.48308600     -5.81764100      0.26979300
H        -2.61674000     -5.96210600      0.93255900
H        -4.25170300     -6.56028100      0.52547500
H        -3.18154200     -5.96590600     -0.77794200
C        -3.48316200      5.81760700      0.26981000
H        -4.25178700      6.56023700      0.52549800
H        -2.61682000      5.96207600      0.93258100
H        -3.18161600      5.96588600     -0.77792200
S        -4.26377600      4.20117900      0.52338700
S        -4.26371700     -4.20122300      0.52338600
