52
COc1ccc(N(c2ccc(/C=C(\C#N)P(=O)(O)O)cc2)c2ccc(OC)cc2)cc1
N        -1.83791700     -0.03491900     -0.03742300
C        -2.70000800     -1.16799000     -0.07591700
C        -2.51732100     -2.23965900      0.80393000
C        -3.36621500     -3.34896400      0.77175600
C        -4.43550000     -3.38542000     -0.13626400
C        -4.63232800     -2.30063300     -1.00885100
C        -3.77219600     -1.21088200     -0.98309100
O        -5.31880700     -4.40760500     -0.24154200
C        -2.44336500      1.25292700      0.03189900
C        -2.08179000      2.26633100     -0.86146300
C        -2.67988400      3.52748100     -0.79757400
C        -3.67635900      3.78135400      0.15718800
C        -4.05408700      2.75805100      1.04452400
C        -3.44030800      1.51400600      0.98692800
O        -4.32332700      4.96345700      0.29604500
C        -0.45537300     -0.18013300     -0.07498700
C         0.39601800      0.81564300      0.46265500
C         1.77235300      0.67773300      0.42582900
C         2.38244100     -0.46308200     -0.15021300
C         1.52145800     -1.45330000     -0.68020700
C         0.14340300     -1.32526400     -0.64907900
C         3.80591500     -0.69417800     -0.23793800
C         4.86907300      0.07370900      0.15183900
P         6.56241400     -0.52052600     -0.02597700
O         6.38757600     -1.76233200     -1.06664400
O         7.24032400      0.66690200     -0.90011800
O         7.33533900     -0.87619100      1.19368900
C        -5.17795600     -5.52275100      0.60829100
C        -3.98580800      6.03191900     -0.55878000
C         4.77126900      1.35754400      0.76159600
N         4.73670200      2.40972700      1.25624600
H        -1.69569700     -2.20932100      1.52190000
H        -3.19189500     -4.16817700      1.46849000
H        -5.46893800     -2.34425800     -1.70831300
H        -3.92669300     -0.37389900     -1.66615500
H        -1.31599200      2.06967700     -1.61397800
H        -2.36999100      4.29602600     -1.50484500
H        -4.82966600      2.97267500      1.78168600
H        -3.73180700      0.72588200      1.68329400
H        -0.04160000      1.70042000      0.92432400
H         2.38361000      1.46455900      0.86494500
H         1.96036700     -2.34215100     -1.14113400
H        -0.48583700     -2.10428000     -1.07875200
H         4.08127900     -1.64424600     -0.70317000
H         6.95071800     -2.49571400     -0.77478900
H         8.11784900      0.87851600     -0.54655000
H        -5.98768800     -6.21795200      0.35072200
H        -4.20801700     -6.03101400      0.46018200
H        -5.27148300     -5.24179800      1.67282400
H        -4.61914400      6.87967500     -0.26642900
H        -2.92519000      6.32237800     -0.45194200
H        -4.18130100      5.78673600     -1.61827300
