68
COc1ccc(N(c2ccc(OC)cc2)c2ccc(-c3ccc(C#Cc4ccc(C(=O)O)cc4)c4nsnc34)cc2)cc1
S        -2.57947400     -2.23966400      2.33582800
N        -1.26642600     -1.56425400      1.62270200
C        -1.70779300     -0.69631300      0.70702100
C        -0.89607800      0.13623000     -0.15004400
C        -1.60451200      0.96672900     -1.01156200
C        -3.01806300      1.02814600     -1.06855600
C        -3.83648300      0.24848900     -0.26090400
C        -3.16477700     -0.63760000      0.65328600
N        -3.76533700     -1.45646700      1.51604900
C         0.57587700      0.12590400     -0.11738800
C         1.31758000     -1.01462400      0.25563400
C         2.70657300     -1.01405000      0.24554200
C         3.43038200      0.13424600     -0.13443800
C         2.69877700      1.28360700     -0.49916100
C         1.31091700      1.27272800     -0.48537200
N         4.83088400      0.13726700     -0.14362600
C         5.55777800      1.33698100      0.08342800
C         6.62203900      1.69286300     -0.75191500
C         7.36364800      2.85477400     -0.52071700
C         7.03169200      3.69514800      0.55184900
C         5.95942200      3.34419800      1.39060500
C         5.24127000      2.17710800      1.16631600
C         5.55984600     -1.06081400     -0.37288200
C         5.23312600     -1.90842700     -1.44682000
C         5.95332300     -3.07365300     -1.67383800
C         7.03754900     -3.41556000     -0.84680200
C         7.37923000     -2.56802300      0.21695200
C         6.63580000     -1.40786500      0.45109100
H        -1.04736900      1.59634100     -1.70676900
H        -3.48540100      1.70809800     -1.78314900
H         0.79258900     -1.91482400      0.56893400
H         3.24608500     -1.91403000      0.54176600
H         3.22961100      2.19067000     -0.78895200
H         0.78347800      2.19017100     -0.75272700
H         6.87917200      1.04532000     -1.59196700
H         8.18831000      3.09688600     -1.19056200
H         5.71962000      4.00295500      2.22717200
H         4.41961100      1.90586800      1.83152200
H         4.40133000     -1.64510400     -2.10249200
H         5.70525900     -3.73839300     -2.50322300
H         8.21285000     -2.80322900      0.87809600
H         6.90061600     -0.75519400      1.28473400
O         7.68022900      4.84763400      0.85675200
O         7.68711100     -4.56694500     -1.15366700
C         8.76080100      5.25394500      0.05079200
H         9.13042300      6.19810200      0.47229600
H         9.58064600      4.51277100      0.05869100
H         8.45099500      5.42599000     -0.99601800
C         8.77748800     -4.96588200     -0.35729100
H         9.14540400     -5.91111100     -0.77789500
H         9.59501400     -4.22236800     -0.37780100
H         8.47940900     -5.13341100      0.69363100
C        -7.89074800      0.34276000     -0.35958100
C        -8.61792100     -0.50008700      0.51085000
C        -8.60008700      1.19320200     -1.23762700
C       -10.00786300     -0.49134500      0.50221900
H        -8.07086800     -1.15692600      1.18910000
C        -9.98865600      1.19727400     -1.24143600
H        -8.04288500      1.84579100     -1.91175900
C       -10.70448300      0.35718400     -0.37369200
H       -10.56643100     -1.14262500      1.17494800
H       -10.54882700      1.84879700     -1.91414000
C       -12.18959000      0.40322700     -0.42058000
O       -12.83527300      1.11505600     -1.15535600
O       -12.77312700     -0.44417900      0.45479800
H       -13.73190000     -0.33422700      0.34175400
C        -5.25016600      0.29929000     -0.31414600
C        -6.46932100      0.32853800     -0.34492300
