60
COc1ccc(N(c2ccc(OC)cc2)c2ccc(-c3ccc(/C=C(\C#N)C(=O)O)cc3)cc2)cc1
C        -3.42894300     -1.01559900      1.25087700
C        -2.76574000     -0.23531800      0.28061200
C        -3.56798200      0.48538500     -0.63167900
C        -4.95322100      0.43644300     -0.58590200
C        -5.61651600     -0.34669700      0.38790600
C        -4.81392300     -1.06908000      1.30137000
C        -7.05099600     -0.46815800      0.52348200
C        -8.08350800      0.08289200     -0.18213500
C        -9.46802500     -0.27403900      0.24835400
C        -1.29352000     -0.17524500      0.21967700
C        -0.49412000     -1.25375200      0.64768700
C         0.89284700     -1.20476900      0.59303900
C         1.55504300     -0.06123700      0.09962800
C         0.76446900      1.02430800     -0.33189900
C        -0.62171000      0.96245500     -0.27008600
N         2.95236400     -0.00538100      0.03986800
C         3.63463400      1.23844800      0.13253000
C         4.64385500      1.56592000     -0.77890500
C         5.33793600      2.77530300     -0.68249700
C         5.01186700      3.69039600      0.32923100
C         3.99505900      3.36677400      1.24473500
C         3.32531800      2.15388300      1.15455200
C         3.72285600     -1.18887100     -0.12189200
C         3.39343200     -2.13282500     -1.11139600
C         4.15226200     -3.28441800     -1.27171300
C         5.27836200     -3.51594300     -0.46246100
C         5.62356200     -2.57112700      0.51493200
C         4.84172900     -1.42489600      0.68388900
H        -3.09051000      1.07722400     -1.41400600
H        -5.52479300      1.00262600     -1.31914000
H        -0.96863000     -2.16451000      1.01788800
H         1.47799900     -2.05979300      0.93216900
H         1.24885700      1.92210800     -0.71621700
H        -1.19642800      1.83082200     -0.59757000
H         4.89418800      0.86000600     -1.57269400
H         6.12063400      2.99525500     -1.40789500
H         3.75988100      4.08494100      2.03224400
H         2.54635300      1.90533000      1.87746200
H         2.52910900     -1.95544200     -1.75376500
H         3.90257000     -4.02358400     -2.03497300
H         6.49028100     -2.71949900      1.15837300
H         5.10962100     -0.69573600      1.45050800
O         5.61555400      4.89253300      0.50425700
O         5.96218900     -4.66325300     -0.70054300
C         6.63699600      5.27800400     -0.38524900
H         6.97598500      6.27158600     -0.06358700
H         7.49321700      4.57984600     -0.35459200
H         6.27193700      5.34342100     -1.42626100
C         7.09914100     -4.95287300      0.07817400
H         7.48858800     -5.91528000     -0.27922800
H         7.88368600     -4.18321800     -0.03849200
H         6.85014300     -5.04323500      1.15110500
H        -7.39199600     -1.11784700      1.33599300
O       -10.40534400      0.31954000     -0.51014900
H       -11.26865700      0.03586800     -0.16561500
O        -9.73340600     -1.01007500      1.16999600
C        -7.93027600      0.96798700     -1.29199600
N        -7.79381100      1.68803000     -2.19403600
H        -5.30208500     -1.67413400      2.06953600
H        -2.84709800     -1.56537000      1.99226600
