53
COc1ccc(N(c2ccc(OC)cc2)c2ccc(-c3cccc4nsnc34)cc2)cc1
S         6.10035000      1.19008300      1.92564900
N         4.66638900      0.76132400      1.25333500
C         4.93653400     -0.00564900      0.19268600
C         3.97555400     -0.62006800     -0.69327200
C         4.51055400     -1.38311300     -1.71928500
C         5.91115300     -1.57770100     -1.90974700
C         6.84678900     -1.00844200     -1.08195200
C         6.36973700     -0.20604400     -0.00674400
N         7.12518400      0.41770400      0.90297500
C         2.51795000     -0.46279000     -0.51819000
C         1.94492300      0.70700100      0.01942000
C         0.56804500      0.84920000      0.14625600
C        -0.30763400     -0.17704600     -0.25902200
C         0.25568300     -1.35377300     -0.79144300
C         1.63356600     -1.48771600     -0.90957800
N        -1.69803300     -0.03562500     -0.13000400
C        -2.52478900     -1.16832400      0.09334000
C        -3.70573200     -1.34395200     -0.63641900
C        -4.54045000     -2.44150100     -0.40686400
C        -4.18792100     -3.39996700      0.55407800
C        -2.99973900     -3.23069400      1.28588500
C        -2.18722100     -2.12623200      1.06698700
C        -2.30659100      1.24485700     -0.21159300
C        -1.97306300      2.13622600     -1.24771600
C        -2.57221900      3.38632000     -1.32719300
C        -3.54138500      3.77493700     -0.38610900
C        -3.89142100      2.88637900      0.64067900
C        -3.26748000      1.63843600      0.72620000
H         3.83093600     -1.84509800     -2.43739300
H         6.23691600     -2.19426800     -2.75109000
H         2.59270000      1.51486500      0.35513000
H         0.15869200      1.76666800      0.57020700
H        -0.39676000     -2.16879100     -1.10588500
H         2.03376300     -2.42369500     -1.30405200
H        -3.97982800     -0.60517200     -1.39150000
H        -5.45389000     -2.54226100     -0.99237500
H        -2.74356200     -3.97970900      2.03739000
H        -1.27357100     -1.99711800      1.64974900
H        -1.23082600      1.83874300     -1.99038500
H        -2.31703400      4.08506200     -2.12595100
H        -4.63785800      3.15615100      1.38727700
H        -3.53598200      0.95392800      1.53263500
O        -4.92067700     -4.50520300      0.84605700
O        -4.07846400      5.01088800     -0.55248400
C        -6.11774900     -4.73304900      0.14154700
H        -6.53900000     -5.66961600      0.53048300
H        -6.84902300     -3.91916800      0.29865200
H        -5.94170800     -4.84322100     -0.94407100
C        -5.04834200      5.45916600      0.36383200
H        -5.34006700      6.46875900      0.04527900
H        -5.94381400      4.81115600      0.36482800
H        -4.64927700      5.50973200      1.39329300
H         7.91942400     -1.14636500     -1.22001800
