66
COc1ccc(N(c2ccc(OC)cc2)c2ccc(-c3c(F)c(F)c(-c4ccc(C(=O)O)cc4)c4nsnc34)cc2)cc1
S        -3.10158500     -2.06309500      2.65702800
N        -1.82887300     -1.43067200      1.83966100
C        -2.31752000     -0.67731800      0.85401000
C        -1.52681500      0.07614500     -0.09025700
C        -2.27871700      0.79875500     -0.99562100
C        -3.70766300      0.82255800     -1.01708100
C        -4.50842100      0.12122600     -0.13968500
C        -3.77940300     -0.65760600      0.82770700
N        -4.32679900     -1.39875600      1.79179900
C        -0.05363000      0.07274100     -0.08514200
C         0.67480000     -1.08311500      0.26174200
C         2.06327700     -1.09292700      0.26252800
C         2.79577400      0.06202600     -0.07996300
C         2.07426700      1.22414000     -0.42243000
C         0.68599200      1.22438200     -0.42470500
N         4.19555100      0.05649900     -0.07825400
C         4.92853300      1.24739500      0.17626700
C         5.99570700      1.61549400     -0.64971300
C         6.74432600      2.76708400     -0.39120900
C         6.41658800      3.58447700      0.70023500
C         5.34094300      3.22137200      1.52948100
C         4.61557200      2.06440100      1.27754000
C         4.92040900     -1.14006700     -0.32877800
C         4.60206800     -1.95889400     -1.42720700
C         5.32004300     -3.12126400     -1.67540000
C         6.39363800     -3.48838900     -0.84529200
C         6.72678100     -2.66940500      0.24325100
C         5.98551500     -1.51224000      0.49810800
H         0.14200400     -1.98821500      0.54809000
H         2.59467500     -2.00390600      0.53865700
H         2.61340700      2.13254700     -0.69172900
H         0.16524800      2.14233300     -0.69532400
H         6.24960600      0.98585000     -1.50424700
H         7.57101800      3.01933800     -1.05473800
H         5.10423100      3.86245800      2.38053100
H         3.79107000      1.78335200      1.93515300
H         3.77932500     -1.67495100     -2.08574300
H         5.07909200     -3.76355400     -2.52435400
H         7.55215300     -2.92449000      0.90734900
H         6.24381800     -0.88138800      1.35041200
O         7.07250800      4.72504100      1.03247000
O         7.04239100     -4.63421200     -1.17389900
C         8.15663400      5.14277400      0.23703300
H         8.53214700      6.07428800      0.68084300
H         8.97140400      4.39604800      0.22834700
H         7.84898100      5.34131900     -0.80567600
C         8.12507400     -5.05500300     -0.37821400
H         8.49509700     -5.99008800     -0.81914100
H         8.94388200     -4.31266500     -0.37299000
H         7.81756900     -5.24822800      0.66556000
C        -5.98538300      0.16398500     -0.18692100
C        -6.74718100     -0.98975900      0.08160800
C        -6.66522900      1.35918500     -0.49825400
C        -8.13749900     -0.95355800      0.03081000
H        -6.24204200     -1.92020000      0.33464400
C        -8.05391000      1.39683700     -0.54241900
H        -6.09815200      2.26789400     -0.69704000
C        -8.80302900      0.24077800     -0.28107200
H        -8.71708000     -1.85441100      0.23364500
H        -8.58383500      2.32163200     -0.77605600
C       -10.28623000      0.33268400     -0.34358400
O       -10.90528700      1.33759000     -0.60774900
O       -10.90055600     -0.83926200     -0.07179700
H       -11.85463300     -0.66816600     -0.14009400
F        -4.24213200      1.56438000     -1.99046000
F        -1.69310000      1.52191000     -1.95591900
