61
COc1ccc(N(c2ccc(OC)cc2)c2ccc(-c3ccc(/C=C(\C#N)C(=O)O)c4nsnc34)cc2)cc1
S        -3.92829700     -2.76629600      2.15547000
N        -2.64231200     -1.96739700      1.52974200
C        -3.11332600     -0.99129400      0.74808500
C        -2.33082500     -0.02811900      0.00639500
C        -3.07708700      0.89656700     -0.72470400
C        -4.48700600      0.93297500     -0.75865400
C        -5.28552200      0.03069100     -0.05688300
C        -4.57067300     -0.95571200      0.71579800
N        -5.13817400     -1.90132300      1.46373300
C        -6.72533200     -0.01010600     -0.03531600
C        -7.65614900      0.78551600     -0.64489500
C        -9.09381300      0.46186300     -0.40839900
C        -0.86386700     -0.00357200      0.01468700
C        -0.08444400     -1.14929400      0.29021600
C         1.30196500     -1.11214800      0.25551700
C         1.99144600      0.08182200     -0.04595900
C         1.22267300      1.23743700     -0.30903300
C        -0.16188500      1.18766800     -0.27854300
N         3.38583600      0.12224800     -0.07855400
C         4.09033800      1.33148300      0.17734800
C         5.11030900      1.75287600     -0.68152900
C         5.83213500      2.92132400     -0.42393200
C         5.52486600      3.69974800      0.70189300
C         4.49723000      3.28097000      1.56555100
C         3.79812700      2.10827400      1.31257100
C         4.14583400     -1.04550000     -0.36644100
C         3.84439600     -1.84257200     -1.48505300
C         4.59774300     -2.97325600     -1.77088800
C         5.68899400     -3.32808100     -0.95811800
C         6.00433700     -2.52924900      0.15091400
C         5.22889700     -1.40377900      0.44234000
H        -2.54890200      1.62903500     -1.33536200
H        -4.95484800      1.69987800     -1.37400900
H        -0.58007900     -2.08379900      0.54378300
H         1.86812700     -2.01795700      0.47271300
H         1.72398700      2.17784400     -0.53750900
H        -0.71317400      2.10937200     -0.47066300
H         5.34761500      1.15269200     -1.56166800
H         6.62227700      3.21696400     -1.11345200
H         4.27766900      3.89166200      2.44307100
H         3.01198100      1.78308300      1.99635400
H         3.00777300     -1.56705500     -2.12958200
H         4.37159000     -3.59922200     -2.63587400
H         6.84271400     -2.77587800      0.80165800
H         5.47342800     -0.78779100      1.30947100
O         6.15782100      4.85102900      1.03661600
O         6.37130000     -4.44142400     -1.32313500
C         7.19640000      5.32315900      0.21021500
H         7.56069100      6.25408000      0.66420200
H         8.03192800      4.60246700      0.14978700
H         6.84055500      5.53871600     -0.81345000
C         7.47445700     -4.84999800     -0.54828900
H         7.86972300     -5.75957600     -1.01934400
H         8.26883100     -4.08201400     -0.52870900
H         7.18207700     -5.08284000      0.49157600
H        -7.15498200     -0.81143400      0.57257200
O        -9.91642200      1.30927000     -1.05253000
H       -10.82445500      1.03072300     -0.84689500
O        -9.49063500     -0.44983300      0.27786400
C        -7.34228600      1.89650100     -1.48386800
N        -7.06190500      2.79679600     -2.16390300
