68
COc1ccc(N(c2ccc(OC)cc2)c2ccc(-c3ccc(/C=C4\SC(=S)N(CC(=O)O)C4=O)c4nsnc34)cc2)cc1
S         1.75984800     -3.43285500     -2.30147000
N         0.58505500     -2.48808000     -1.66075800
C         1.18026600     -1.47739400     -1.02067000
C         0.52519400     -0.39318800     -0.32283300
C         1.38913800      0.54079400      0.25090200
C         2.79551200      0.47585200      0.16906500
C         3.47475400     -0.54309500     -0.49753900
C         2.63416100     -1.54397600     -1.10669400
N         3.07631100     -2.59394300     -1.79718100
C        -0.93206300     -0.26064700     -0.22397900
C        -1.80746000     -1.36435300     -0.33480500
C        -3.18136500     -1.22019700     -0.20826700
C        -3.76306900      0.04489900      0.02406400
C        -2.89810100      1.15768600      0.12696300
C        -1.52689900      1.00109600      0.00604000
N        -5.14434200      0.19528100      0.14139900
C        -5.77705200      1.43027300     -0.17437700
C        -6.70316500      1.99701500      0.70687700
C        -7.35503400      3.19304900      0.39532500
C        -7.07037400      3.85162100     -0.81030500
C        -6.13778400      3.28553300     -1.69767700
C        -5.50910500      2.08671900     -1.38879100
C        -5.96779700     -0.88632500      0.56235400
C        -5.66086200     -1.61560700      1.72473600
C        -6.47513000     -2.66141500      2.13841100
C        -7.63287000     -2.99453800      1.41292000
C        -7.95305900     -2.26092700      0.26090200
C        -7.11771900     -1.22243800     -0.15876700
H         0.96306000      1.36542800      0.82260200
H         3.35612700      1.26537400      0.66962900
H        -1.39817100     -2.35238300     -0.53343200
H        -3.82264500     -2.09671900     -0.30049200
H        -3.31467300      2.14973100      0.30037200
H        -0.90150600      1.89261500      0.07265900
H        -6.92200700      1.49039300      1.64848200
H        -8.07294600      3.60401100      1.10440900
H        -5.93588600      3.80402000     -2.63661300
H        -4.79740400      1.64685500     -2.08978800
H        -4.77144800     -1.35558000      2.30153200
H        -6.24519100     -3.23469600      3.03822000
H        -8.84245000     -2.49245700     -0.32420400
H        -7.36675700     -0.65804100     -1.05911500
O        -7.63858500      5.01804600     -1.20200300
O        -8.37022000     -4.02263300      1.89899100
C        -8.57431000      5.64085600     -0.35248000
H        -8.89771300      6.55868500     -0.86075300
H        -9.45659100      4.99996800     -0.17378200
H        -8.12812500      5.90853500      0.62230000
C        -9.53947100     -4.40786600      1.21363700
H        -9.96982700     -5.24782600      1.77453400
H       -10.27925200     -3.58807000      1.17156100
H        -9.31995000     -4.73963700      0.18278900
C         4.90026800     -0.67718000     -0.62263500
H         5.24299900     -1.55845600     -1.17313900
C         5.90452800      0.12288300     -0.16766700
C         7.31069900     -0.22422700     -0.42030800
S         5.82319600      1.62442700      0.75282300
C         7.58564800      1.80002700      0.78727600
S         8.34174800      3.06126800      1.50356200
O         7.72754200     -1.21826100     -1.00520100
N         8.16781000      0.73694100      0.11593000
C         9.61177100      0.63293600     -0.09456600
H        10.05621900      1.59705900      0.17179100
H         9.77923900      0.41520500     -1.16158800
C        10.29804800     -0.45588300      0.75366300
O        11.19779400     -0.19803600      1.50505300
O         9.85209700     -1.69988700      0.56461700
H         9.14159200     -1.71657900     -0.11863700
