50
COc1ccc(N(c2ccc(/C=C(\C#N)C(=O)O)cc2)c2ccc(OC)cc2)cc1
C         4.47901400     -0.92395000     -0.22564000
C         5.58521000     -0.16310400      0.04870100
C         6.91542900     -0.79829900     -0.16153300
C         3.07009700     -0.64102400     -0.14296800
C         2.17022300     -1.66949500     -0.51590300
C         0.79792900     -1.49755100     -0.47852200
C         0.24314600     -0.26562900     -0.05824800
C         1.13271600      0.76932600      0.32283300
C         2.50303900      0.58727500      0.28122300
N        -1.13194100     -0.07406600     -0.01991300
C        -1.69763400      1.23203300     -0.09556900
C        -2.65798900      1.63977900      0.83438600
C        -3.24656200      2.90446700      0.75221900
C        -2.86274900      3.78917400     -0.26692700
C        -1.89534300      3.38153300     -1.20277000
C        -1.32888500      2.11651500     -1.12400600
C        -2.02962900     -1.17669300      0.07338600
C        -1.87979500     -2.14266700      1.08347600
C        -2.76747500     -3.20607100      1.17979000
C        -3.84241300     -3.32158600      0.28026500
C        -4.00620700     -2.35146500     -0.71991700
C        -3.09803300     -1.29432400     -0.82013500
H         2.57603200     -2.62554100     -0.85660100
H         0.13912600     -2.30892400     -0.78642500
H         0.72916300      1.72171900      0.66572000
H         3.14581000      1.40823100      0.59477600
H        -2.95353300      0.95464400      1.63088800
H        -3.99346100      3.18977500      1.49231300
H        -1.61495100      4.07834500     -1.99446900
H        -0.58769900      1.80310700     -1.86143000
H        -1.05560200     -2.05278800      1.79350500
H        -2.66062400     -3.96293900      1.95879400
H        -4.82898000     -2.41062400     -1.43154100
H        -3.22504900     -0.54290900     -1.60148000
O        -3.36500900      5.03645800     -0.43091800
O        -4.66019400     -4.38708400      0.45772400
C        -4.33039000      5.51014700      0.47981500
H        -4.58883400      6.52856900      0.16158100
H        -5.24371500      4.88825500      0.46936800
H        -3.93738500      5.54546300      1.51179600
C        -5.75233100     -4.56320500     -0.41530500
H        -6.26812000     -5.47685700     -0.09209100
H        -6.45893900     -3.71521400     -0.36451500
H        -5.42360300     -4.68805900     -1.46273800
H         4.73567000     -1.93016100     -0.57274100
O         7.93184600      0.03207200      0.13626100
H         8.75241500     -0.46093000     -0.03008900
O         7.08709600     -1.92985300     -0.55482400
C         5.54495300      1.18400500      0.51729100
N         5.49400600      2.28106100      0.89902400
