66
COc1ccc(N(c2ccc(OC)cc2)c2ccc(-c3ccc(-c4ccc(C(=O)O)cc4)c4nsnc34)cc2)cc1
S        -3.33820400     -2.10976500      2.53074600
N        -2.04110600     -1.47222200      1.75971700
C        -2.49919200     -0.67614900      0.78944900
C        -1.69246600      0.10048200     -0.11972300
C        -2.40754700      0.86912200     -1.02529800
C        -3.82517100      0.91554400     -1.07168800
C        -4.64663300      0.19364000     -0.22198900
C        -3.96131400     -0.63184700      0.73722300
N        -4.53674100     -1.39790100      1.66877600
C        -0.21898400      0.09370400     -0.09272300
C         0.52553100     -1.03554500      0.30484100
C         1.91484800     -1.03222000      0.28783900
C         2.63313200      0.10785600     -0.12478400
C         1.89804100      1.24556600     -0.51546900
C         0.50959400      1.23222200     -0.49407200
N         4.03488800      0.11413200     -0.14005100
C         4.75787600      1.31790500      0.07499600
C         5.82395300      1.66772500     -0.76079900
C         6.56090600      2.83485200     -0.54080300
C         6.22223700      3.68707000      0.52016900
C         5.14796000      3.34266600      1.35894800
C         4.43470600      2.17040700      1.14634800
C         4.76422600     -1.08415500     -0.36380600
C         4.42581400     -1.94605900     -1.42282400
C         5.14573000     -3.11244400     -1.64483100
C         6.24154200     -3.44172500     -0.82815800
C         6.59478500     -2.58044100      0.22058300
C         5.85155000     -1.41923200      0.45041300
H        -1.85977100      1.45082800     -1.76838600
H        -4.28388700      1.53190200     -1.84688000
H         0.00347700     -1.92872400      0.64302600
H         2.45888600     -1.92282100      0.60378800
H         2.42620900      2.14565900     -0.83107400
H        -0.02368200      2.14003700     -0.78275400
H         6.08642300      1.01124300     -1.59220300
H         7.38718900      3.07167400     -1.21057200
H         4.90258100      4.01076800      2.18645400
H         3.61139400      1.90468500      1.81171300
H         3.58495900     -1.69284600     -2.07086900
H         4.88832200     -3.78787000     -2.46267600
H         7.43743600     -2.80562300      0.87374400
H         6.12575900     -0.75611100      1.27268000
O         6.86584800      4.84560500      0.81361500
O         6.89013400     -4.59542600     -1.12965900
C         7.94793500      5.24559400      0.00681000
H         8.31312600      6.19596400      0.41816400
H         8.77017500      4.50724100      0.02647900
H         7.64152300      5.40403400     -1.04318100
C         7.99220600     -4.98135400     -0.34331000
H         8.35758700     -5.93049600     -0.75733500
H         8.80710200     -4.23570700     -0.38359800
H         7.70889000     -5.13709800      0.71353200
C        -6.11968800      0.27919300     -0.30481600
C        -6.94733000     -0.81912000      0.00308400
C        -6.73616000      1.47799500     -0.72163600
C        -8.33095900     -0.72750400     -0.11936000
H        -6.49698600     -1.75032900      0.34113900
C        -8.11712900      1.57219600     -0.84184600
H        -6.12207600      2.35620400     -0.92820800
C        -8.92926000      0.46790100     -0.54422200
H        -8.95911600     -1.58768100      0.11377500
H        -8.59382000      2.50179000     -1.15719500
C       -10.40111900      0.61661000     -0.68640700
O       -10.96246900      1.62554500     -1.04837900
O       -11.08052900     -0.50712400     -0.36787600
H       -12.02129600     -0.30005000     -0.49504300
