44
Cc1ccc(N(c2ccc(C)cc2)c2ccc(B(O)O)cc2)cc1
N         0.54522200     -0.00002300     -0.00445500
C         1.26330600     -1.22158500     -0.01244600
C         0.86157900     -2.28592200     -0.83559600
C         1.56921300     -3.48631200     -0.83212200
C         2.70838300     -3.66487100     -0.03173000
C         3.10483100     -2.59142600      0.77977100
C         2.39534200     -1.39147800      0.79988600
C         3.49240500     -4.95202400     -0.06676600
C         1.25880500      1.22415600      0.01039700
C         0.85375100      2.28216100      0.83923100
C         1.56097800      3.48342000      0.84639200
C         2.70031700      3.66931300      0.04901400
C         3.10417800      2.59894700     -0.76404200
C         2.39575000      1.39923900     -0.79471200
C         3.44747700      4.97855600      0.04323300
C        -0.86533100     -0.00211500     -0.00317200
C        -1.58479900      0.98004100     -0.70981100
C        -2.97624300      0.97414900     -0.69862900
C        -3.70806200     -0.00580200     -0.00110300
C        -2.97270300     -0.98372700      0.69545600
C        -1.58118700     -0.98599900      0.70469400
B        -5.26656100     -0.00793200     -0.00007600
O        -5.91496000     -0.99504300      0.69747200
O        -5.91859400      0.97729500     -0.69691500
H        -0.01599500     -2.16716400     -1.47305200
H         1.23364600     -4.30231200     -1.47846100
H         3.98218900     -2.70110600      1.42347300
H         2.71535900     -0.57468700      1.44888000
H         2.83451900     -5.82199200     -0.21689400
H         4.22420300     -4.95222000     -0.89389800
H         4.05520700     -5.10696100      0.86623500
H        -0.02171700      2.15596000      1.47813100
H         1.22675000      4.29277800      1.50166000
H         3.98872200      2.71001800     -1.39772000
H         2.72407300      0.58352900     -1.44092200
H         3.30114000      5.53077900      0.98394300
H         4.52866300      4.82642100     -0.09874100
H         3.10153600      5.63239400     -0.77684700
H        -1.04070500      1.74329300     -1.26800600
H        -3.51684100      1.74253700     -1.25672300
H        -3.51047400     -1.75347400      1.25440500
H        -1.03441800     -1.74775900      1.26229900
H        -6.87781700     -0.95814000      0.67442500
H        -6.88131300      0.93760100     -0.67274000
