40
Cc1ccc(N(c2ccccc2)c2ccc(C)cc2)cc1
N         0.00000000      0.00000000      0.33787800
C        -0.40189900      1.15682000     -0.37320900
C         0.00000000      2.43463600      0.04563700
C        -0.40318200      3.56835500     -0.65952500
C        -1.20015700      3.47315300     -1.80944000
C        -1.58605500      2.18884300     -2.22550900
C        -1.20646000      1.04930600     -1.52003800
C        -1.64883700      4.70073000     -2.56067000
C         0.40189900     -1.15682000     -0.37320900
C         0.00000000     -2.43463600      0.04563700
C         0.40318200     -3.56835500     -0.65952500
C         1.20015700     -3.47315300     -1.80944000
C         1.58605500     -2.18884300     -2.22550900
C         1.20646000     -1.04930600     -1.52003800
C         1.64883700     -4.70073000     -2.56067000
C         0.00000000      0.00000000      1.75148200
C         1.03024800     -0.63637100      2.46633700
C         1.02133200     -0.64102300      3.86093000
C         0.00000000      0.00000000      4.56897900
C        -1.02133200      0.64102300      3.86093000
C        -1.03024800      0.63637100      2.46633700
H         0.63200500      2.53441800      0.92952800
H        -0.07547000      4.55283000     -0.31390200
H        -2.20970100      2.07799000     -3.11727900
H        -1.52678900      0.06239000     -1.85776600
H        -1.58367500      4.55369500     -3.65039200
H        -2.70001700      4.94858200     -2.33094400
H        -1.03966600      5.57875000     -2.29889300
H        -0.63200500     -2.53441800      0.92952800
H         0.07547000     -4.55283000     -0.31390200
H         2.20970100     -2.07799000     -3.11727900
H         1.52678900     -0.06239000     -1.85776600
H         1.03966600     -5.57875000     -2.29889300
H         1.58367500     -4.55369500     -3.65039200
H         2.70001700     -4.94858200     -2.33094400
H         1.83570100     -1.12751600      1.91838400
H         1.83055400     -1.14047700      4.39967100
H        -1.83055400      1.14047700      4.39967100
H        -1.83570100      1.12751600      1.91838400
H         0.00000000      0.00000000      5.66110000
