21
COc1ccc(P(=O)(O)O)cc1
O         3.64904900      0.46739400     -0.00779100
C         4.49998300     -0.65756600     -0.03461100
C         2.31026600      0.28412100      0.00208300
C         1.52588100      1.45097000      0.03269400
C         0.14047200      1.36029700      0.04540800
C        -0.49038900      0.10423200      0.02734600
C         0.29339600     -1.05613700     -0.00434000
C         1.68584800     -0.97556300     -0.01621500
P        -2.27926600      0.04819900      0.02040600
O        -2.95669000      1.37162100      0.04803100
O        -2.72791400     -0.87303300     -1.25757900
O        -2.57793700     -0.99120000      1.23100000
H         5.52760800     -0.27162100     -0.03647900
H         4.35799100     -1.29833900      0.85362900
H         4.34300600     -1.26695400     -0.94225600
H         2.03486100      2.41620900      0.04830000
H        -0.47625500      2.26106500      0.07256100
H        -0.18562600     -2.03752300     -0.01682000
H         2.27335700     -1.89270700     -0.03853700
H        -3.04659100     -0.30318600     -1.97302600
H        -3.52416700     -1.19030500      1.30304800
