20
Cc1ccc(P(=O)(O)O)cc1
C        -2.71815000     -0.00370600      0.00969700
C        -2.02031300      1.21081300     -0.03000700
C        -0.62421000      1.23878000     -0.04696500
C         0.10015100      0.04130900     -0.02399200
C        -0.58574500     -1.18362800      0.01791900
C        -1.97703100     -1.19928300      0.03338500
P         1.89182300      0.12989900     -0.02143100
O         2.46423200      1.50183000     -0.04096200
O         2.40561400     -0.76242000      1.25088000
O         2.26429200     -0.87064600     -1.24297800
H        -2.57835300      2.15059400     -0.04958200
H        -0.08284900      2.18664400     -0.08051300
H        -0.02690900     -2.12168200      0.03631600
H        -2.50509400     -2.15645100      0.06432600
H         2.68571700     -0.17608700      1.96917100
H         3.22361200     -0.97090700     -1.34235100
C        -4.22424900     -0.04233500      0.02430000
H        -4.65554500      0.96886200      0.02517500
H        -4.61468700     -0.57751700     -0.85713600
H        -4.59906400     -0.57375200      0.91451100
