27
O=C(O)CCc1cccc2ccccc12
O         4.92937100      0.32535900     -0.00092100
C         3.79380800     -0.40266200      0.00011500
C         2.56887100      0.48238100     -0.00009100
C         1.27479600     -0.31833600     -0.00020400
C        -0.00498400      0.48683000     -0.00005100
C        -0.00996400      1.86975200      0.00009500
C        -1.21732300      2.61235800      0.00023200
C        -2.43045400      1.96653700      0.00021200
C        -2.48615500      0.54529900      0.00005600
C        -3.72878800     -0.14545300      0.00002700
C        -3.77723100     -1.52275500     -0.00012200
C        -2.57542800     -2.26974600     -0.00024300
C        -1.35311900     -1.62913700     -0.00021700
C        -1.26409600     -0.20840600     -0.00007200
O         3.79532800     -1.60859100      0.00126200
H         5.66712500     -0.30829700     -0.00051900
H         2.64287500      1.14697600      0.87707900
H         2.64308100      1.14708600     -0.87714200
H         1.28290500     -0.99381700     -0.87188300
H         1.28297700     -0.99411000      0.87123800
H         0.93170300      2.42013100      0.00010000
H        -1.17321500      3.70410700      0.00034900
H        -3.36595700      2.53164600      0.00031400
H        -4.65125800      0.44126400      0.00012400
H        -4.73953200     -2.04018700     -0.00014600
H        -2.61635100     -3.36164100     -0.00035400
H        -0.44153600     -2.22727200     -0.00030600
