71
O=P(O)(O)CCCCn1c2ccc(-c3ccc4ccccc4c3)cc2c2cc(-c3ccc4ccccc4c3)ccc21
C        -0.95082300     -3.04425400     -0.28140100
C         0.37463100     -3.46852400     -0.54346100
C         1.40468000     -2.57122600     -0.81798200
C         1.10002300     -1.20605600     -0.83111800
C        -0.22026100     -0.74742200     -0.56080600
C        -1.23407700     -1.66953000     -0.29067100
N         1.92056100     -0.11290500     -1.07807600
C         1.17111900      1.04836800     -0.93949100
C        -0.17326600      0.70189900     -0.62480400
C         1.55810900      2.38627400     -1.06982300
C         0.58561500      3.36844700     -0.89347600
C        -0.76053100      3.05577200     -0.58412900
C        -1.12772900      1.70735000     -0.45375800
C         5.66294000     -0.18739900     -0.24313700
C         6.47585400     -0.14726900      1.05439700
P         8.26490100     -0.21399400      0.83195400
O         9.14599100     -0.18038100      2.02962000
O         8.43777000     -1.56094700     -0.07337900
O         8.52036600      1.02118500     -0.20414500
C         3.34934100     -0.16807600     -1.29217200
C         4.15751700     -0.12782500      0.00789900
H         0.59428300     -4.53777500     -0.55498700
H         2.41367100     -2.93427500     -1.02084500
H        -2.24206300     -1.31986900     -0.05896400
H         2.58979700      2.66458800     -1.29153200
H         0.88012700      4.41691100     -0.96886800
H        -2.16565500      1.44378400     -0.24120900
H         5.97063600      0.65436000     -0.88555300
H         5.91578300     -1.10688700     -0.79677600
H         6.21768800     -0.99283800      1.71320900
H         6.27277400      0.77473100      1.62391300
H         9.27293600     -2.00209100      0.14394000
H         9.37528300      1.43805400     -0.01796200
H         3.58047500     -1.08577100     -1.85604800
H         3.63510400      0.67257500     -1.94430100
H         3.90055900      0.79261400      0.55952300
H         3.84555000     -0.97055900      0.64822900
C        -1.75921300      4.13586600     -0.39380600
C        -1.70597200      5.32022400     -1.18924300
C        -2.76756300      4.02750700      0.55270400
C        -2.62644600      6.33040700     -1.03064400
H        -0.93348500      5.40968000     -1.95552300
C        -3.73439400      5.04916700      0.74137500
H        -2.81525700      3.14601100      1.19630200
C        -3.66654500      6.23203500     -0.06649400
H        -2.57371700      7.22401400     -1.65823600
C        -2.01798800     -4.03640500     -0.00426500
C        -1.73128600     -5.22137600      0.73863400
C        -3.31637100     -3.84272500     -0.45270900
C        -2.70962900     -6.14993700      1.00976000
H        -0.72005800     -5.37636700      1.11983500
C        -4.35007400     -4.77885800     -0.18948700
H        -3.55826500     -2.96007700     -1.04932500
C        -4.04488600     -5.96350900      0.55876100
H        -2.47056300     -7.04506500      1.59009200
C        -5.08030500     -6.90084500      0.82049600
C        -5.68221400     -4.58561700     -0.65117100
C        -4.76790900      4.94334800      1.71388200
C        -4.63416000      7.25502400      0.12432800
C        -6.36253600     -6.68277100      0.36195100
H        -7.15029400     -7.41103400      0.56870700
C        -6.66528100     -5.51371900     -0.38163300
H        -7.68426100     -5.35139300     -0.74105900
H        -4.84193900     -7.80124100      1.39286200
H        -5.91384400     -3.68407100     -1.22438800
C        -5.69206400      5.95336000      1.87588200
H        -6.48125200      5.85774900      2.62547900
C        -5.62578800      7.12073100      1.07331300
H        -6.36382700      7.91437200      1.21155300
H        -4.81747400      4.04295500      2.33182500
H        -4.57829400      8.15370100     -0.49566400
