17
O=C(O)c1ccc([N+](=O)[O-])cc1
C        -1.40594500      0.00042600     -0.00003000
C        -0.74918400      1.23129100     -0.00031200
C         0.64273200      1.24046900     -0.00031500
C         1.35647100      0.03256400     -0.00003700
C         0.67287800     -1.19294900      0.00020800
C        -0.72038300     -1.21376200      0.00023200
C         2.84884900      0.10507300      0.00009000
O         3.43093300     -1.10929500     -0.00031200
O         3.48040000      1.13405300      0.00038400
H        -1.33483700      2.14948800     -0.00052700
H         1.20087400      2.17777000     -0.00048700
H         1.23784800     -2.12491500      0.00036100
H        -1.28477200     -2.14515700      0.00042800
H         4.39154500     -0.95993700     -0.00016700
N        -2.88684400     -0.01758800     -0.00001500
O        -3.43494000     -1.10690000     -0.00024700
O        -3.46080000      1.05804200      0.00036100
