19
O=[N+]([O-])c1ccc(P(=O)(O)O)cc1
C        -2.04000500      0.00478400     -0.00177700
C        -1.38673400      1.23499800     -0.03073200
C         0.00815700      1.24756400     -0.04272600
C         0.72099300      0.04078300     -0.02580900
C         0.04021000     -1.18682200      0.00413100
C        -1.35219500     -1.20952000      0.01515800
P         2.52317600      0.12598800     -0.01674400
O         3.08660700      1.49968300     -0.02992600
O         3.00729900     -0.77148200      1.25643800
O         2.87473600     -0.86653200     -1.24540900
H        -1.97363400      2.15244200     -0.04455200
H         0.55819200      2.19030800     -0.06791900
H         0.59997200     -2.12372800      0.01668900
H        -1.91569300     -2.14133800      0.03672100
H         3.31590900     -0.19823200      1.97421600
H         3.83024900     -0.94547400     -1.39242200
N        -3.52082900     -0.01636300      0.01218700
O        -4.09756200      1.05759500     -0.00258300
O        -4.06600400     -1.10676100      0.03818600
