59
O=P(O)(O)CCCCn1c2ccc(-c3ccccc3Cl)cc2c2cc(-c3ccccc3Cl)ccc21
C        -1.66262500     -3.02466600     -0.11027100
C        -0.35212700     -3.43793100     -0.44512000
C         0.65584300     -2.52927400     -0.76480800
C         0.33767100     -1.16775800     -0.74536100
C        -0.97022100     -0.72390800     -0.39975400
C        -1.96249400     -1.65512100     -0.08799400
N         1.13322500     -0.06398900     -1.02579500
C         0.38190100      1.08909400     -0.83655900
C        -0.94060100      0.72619900     -0.45408400
C         0.75129200      2.43095400     -0.97202800
C        -0.22089400      3.40110200     -0.73208100
C        -1.54215300      3.06807700     -0.35309300
C        -1.89438900      1.71774500     -0.21712600
C         4.91413300     -0.10825400     -0.38605200
C         5.79201800     -0.07220300      0.86854900
P         7.56785500     -0.11779100      0.55436200
O         8.50891500     -0.08653400      1.70562500
O         7.70795600     -1.45400700     -0.37238600
O         7.75778100      1.13005800     -0.48069500
C         2.54923700     -0.10318800     -1.31461000
C         3.42306500     -0.06687300     -0.05765300
H        -0.12917600     -4.50674800     -0.46877200
H         1.65593100     -2.88109600     -1.02342800
H        -2.96419400     -1.31840600      0.18094300
H         1.76639900      2.72162800     -1.24749100
H         0.04969300      4.45556500     -0.81893300
H        -2.91036100      1.44307700      0.06827500
H         5.18011100      0.74288700     -1.03471700
H         5.14744700     -1.01961100     -0.96130600
H         5.57645800     -0.92685500      1.53095300
H         5.60905900      0.84194100      1.45723300
H         8.55771900     -1.88802700     -0.20251600
H         8.61681900      1.55404600     -0.33372400
H         2.75921200     -1.01338500     -1.89857900
H         2.79294500      0.74616100     -1.97253600
H         3.18549900      0.84545800      0.51569100
H         3.15279500     -0.91889300      0.58931800
C        -2.53751500      4.15328900     -0.15227900
C        -2.68853800      5.14270500     -1.14296200
C        -3.35039000      4.27338600      0.99326300
C        -3.59902600      6.19011500     -1.01234000
H        -2.07951200      5.06258100     -2.04593100
C        -4.26949100      5.31713600      1.13523300
C        -4.39655300      6.27663200      0.13114300
H        -3.69114300      6.93345700     -1.80729200
H        -4.87226300      5.37094600      2.04282900
H        -5.11718800      7.08933800      0.24681000
C        -2.67604800     -4.04632500      0.26094200
C        -2.34994500     -5.02589700      1.21874500
C        -3.96696800     -4.11437200     -0.30159900
C        -3.25297400     -6.01491400      1.60534200
H        -1.36050400     -4.98486900      1.67917100
C        -4.88302300     -5.09916600      0.07966500
C        -4.52782200     -6.05043200      1.03561800
H        -2.96356000     -6.75220900      2.35742600
H        -5.86819900     -5.11429800     -0.38846500
H        -5.24803200     -6.81689800      1.33058700
Cl       -3.21336500      3.13970500      2.32450500
Cl       -4.47261900     -2.98935600     -1.54845200
