61
COc1ccccc1-c1ccc2c(c1)c1cc(-c3ccccc3OC)ccc1n2CCP(=O)(O)O
C         0.90412300      3.00856300     -0.06442000
C        -0.43015900      3.43985500     -0.25908700
C        -1.48112700      2.54936000     -0.47626400
C        -1.18254900      1.18415900     -0.50105200
C         0.14661100      0.71850900     -0.30111900
C         1.18081300      1.63242300     -0.09178100
N        -2.02048900      0.09334600     -0.70438400
C        -1.27191000     -1.07372200     -0.59724400
C         0.08886100     -0.73227200     -0.36048200
C        -1.67622400     -2.40880200     -0.68456600
C        -0.69841900     -3.39381100     -0.54852600
C         0.66530100     -3.08609700     -0.32573700
C         1.04720400     -1.73862400     -0.22886200
C        -3.45617200      0.15877500     -0.80847400
C        -4.14046800      0.16017400      0.56826400
P        -5.93827500      0.26292800      0.49520200
O        -6.13537000      1.59743000     -0.42286000
O        -6.29642600     -0.98272000     -0.49796900
O        -6.72799000      0.26806400      1.75415300
H        -0.64047700      4.51128700     -0.25733000
H        -2.49788400      2.91732000     -0.62634800
H         2.20034600      1.27959600      0.05842700
H        -2.72098500     -2.68310500     -0.84234700
H        -0.99874600     -4.44264300     -0.59295800
H         2.09028800     -1.48041200     -0.05090000
H        -3.73307100      1.06639000     -1.36359700
H        -3.81112600     -0.69607000     -1.40118400
H        -3.89318900     -0.75791600      1.12409200
H        -3.79367300      1.01452100      1.17055900
H        -6.96302800      2.04781300     -0.19575600
H        -7.12600200     -1.40216800     -0.22370100
C         1.96407400      4.01497000      0.20373900
C         3.24255300      3.95023900     -0.40966200
C         1.71152100      5.09004600      1.06831800
C         4.20330000      4.93731300     -0.15090300
C         2.66640900      6.07594700      1.33025500
H         0.73866600      5.13793700      1.56221600
C         3.91440600      5.99539800      0.71655400
H         5.18198200      4.89098900     -0.62715900
H         2.43527400      6.89441500      2.01524600
H         4.67705300      6.75384100      0.90927800
C         1.65715400     -4.18896000     -0.23379700
C         1.58968600     -5.27256200     -1.12158600
C         2.67992200     -4.20745400      0.75032700
C         2.48450800     -6.34404100     -1.05899400
H         0.81961000     -5.25826100     -1.89584900
C         3.57896900     -5.28046700      0.81794800
C         3.48037500     -6.34380100     -0.08484400
H         2.40522200     -7.16659200     -1.77290300
H         4.35896400     -5.29646900      1.57824700
H         4.19237000     -7.17009600     -0.01942700
O         3.46281500      2.90673300     -1.25218200
O         2.72055100     -3.15384400      1.60784200
C         4.68318700      2.81955900     -1.94670600
H         4.85190500      3.70065300     -2.59161500
H         5.54238500      2.71492900     -1.25964600
H         4.61936400      1.92246300     -2.57679200
C         3.67091400     -3.13729000      2.64514100
H         3.55191600     -4.00020500      3.32487200
H         4.70551600     -3.13379100      2.25676800
H         3.49905700     -2.21138700      3.20996100
