49
O=P(O)(O)CCCCn1c2ccccc2c2cc(-c3ccccc3)ccc21
C         1.14532200      4.85733900      0.48066800
C        -0.20731900      4.76018200      0.10507300
C        -0.75959000      3.55080100     -0.32052800
C         0.07906700      2.43137300     -0.36647200
C         1.44836100      2.51150400      0.01818900
C         1.97655600      3.73784200      0.44019500
N        -0.20634300      1.12832500     -0.75842400
C         0.93629600      0.35468800     -0.60570300
C         1.99757600      1.17708300     -0.13282200
C         1.13450700     -1.00915800     -0.84685700
C         2.40496100     -1.53521300     -0.62263900
C         3.48295300     -0.74193500     -0.16028700
C         3.26193300      0.62226000      0.08306700
C        -3.71088400     -0.37106700     -0.33580400
C        -4.53810100     -0.84963100      0.86115900
P        -6.17484000     -1.48554100      0.44778100
O        -7.05856800     -1.97739300      1.53829200
O        -6.80979600     -0.24542400     -0.40255200
O        -5.82103300     -2.62079000     -0.67053500
C        -1.51283900      0.62982600     -1.12436000
C        -2.33630800      0.15274900      0.07535700
H        -0.84158600      5.64882500      0.14879800
H        -1.81170800      3.48792700     -0.60384100
H         3.02577400      3.81438500      0.73529000
H         0.32259500     -1.65364000     -1.18817800
H         2.56747300     -2.60279400     -0.78279300
H         4.08478700      1.25625700      0.41933100
H        -3.59783000     -1.20381900     -1.04972600
H        -4.27037000      0.41700800     -0.86670500
H        -4.70038700     -0.03432900      1.58546500
H        -4.02330800     -1.66022800      1.40304200
H        -7.76627800     -0.19697500     -0.25383100
H        -6.44445000     -3.35955400     -0.60074700
H        -2.05062700      1.42670500     -1.66233900
H        -1.38104700     -0.19200600     -1.84612600
H        -1.77265900     -0.63461300      0.60443800
H        -2.44567200      0.98806200      0.78796800
C         4.81932000     -1.34660900      0.06595600
C         5.31557900     -2.35128900     -0.78525000
C         5.63049800     -0.93127900      1.13828000
C         6.57271100     -2.91895300     -0.57270700
H         4.71706000     -2.67324200     -1.64011200
C         6.88924300     -1.49551600      1.34964500
H         5.25698600     -0.17297000      1.82975800
C         7.36710200     -2.49345900      0.49560600
H         6.93852100     -3.69241500     -1.25272500
H         7.49690400     -1.16056000      2.19405000
H         8.35172200     -2.93683600      0.66177300
H         1.54460900      5.81928000      0.80922800
