59
O=P(O)(O)CCCCn1c2ccc(-c3ccc(Cl)cc3)cc2c2cc(-c3ccc(Cl)cc3)ccc21
C         1.31994400      3.06322800     -0.37356600
C        -0.01445600      3.41835500     -0.68756000
C        -1.00311500      2.46608700     -0.92516600
C        -0.64572500      1.11567300     -0.84949400
C         0.68565600      0.72682100     -0.52897200
C         1.65750700      1.70320900     -0.29687100
N        -1.41790100     -0.02160500     -1.04629000
C        -0.62690800     -1.14170900     -0.82662900
C         0.69640300     -0.72423500     -0.50878600
C        -0.95985900     -2.49933000     -0.88274200
C         0.04549600     -3.42999900     -0.63010900
C         1.37270400     -3.04627200     -0.31913200
C         1.68525200     -1.67942500     -0.26065500
C        -5.17657600     -0.04597900     -0.28363400
C        -6.01310300     -0.03974800      0.99934700
P        -7.79870200     -0.05851700      0.74123300
O        -8.70139100     -0.05452200      1.92301100
O        -8.00474100      1.22277200     -0.24839800
O        -7.98398900     -1.36369600     -0.22123900
C        -2.84362700     -0.03604900     -1.28863700
C        -3.67526900     -0.03057000     -0.00294200
H        -0.27361100      4.47559300     -0.77020700
H        -2.02052600      2.77587900     -1.16969100
H         2.67345300      1.40707600     -0.02795100
H        -1.97582400     -2.83072800     -1.10373800
H        -0.20681400     -4.49200700     -0.64495600
H         2.70717100     -1.36158300     -0.04435200
H        -5.43875200     -0.93654300     -0.87866900
H        -5.45348800      0.82761400     -0.89685700
H        -5.80147700      0.85398300      1.60935700
H        -5.78590100     -0.91657100      1.62801800
H        -8.86071600      1.64285600     -0.07452700
H        -8.82563200     -1.80284000     -0.02586900
H        -3.09837600      0.83636500     -1.91106900
H        -3.08329400     -0.92469400     -1.89389600
H        -3.39409400     -0.90538100      0.60796200
H        -3.40899200      0.86069000      0.59061600
C         2.41031000     -4.07281400     -0.05617200
C         2.43159800     -5.28675300     -0.76709400
C         3.40957000     -3.86508800      0.91236600
C         3.40505100     -6.25542400     -0.52608800
H         1.68623500     -5.46913600     -1.54379900
C         4.39199600     -4.82205100      1.16285900
H         3.40514100     -2.94577400      1.50141000
C         4.38498600     -6.01767100      0.44051000
H         3.41590000     -7.18903800     -1.09033500
H         5.15631700     -4.65240300      1.92256100
C         2.33984100      4.11166200     -0.12849000
C         2.01027300      5.31049500      0.53004900
C         3.67271200      3.94011800     -0.54536600
C         2.96491800      6.29917900      0.76490500
H         0.99102500      5.46482400      0.88977500
C         4.63992100      4.91746000     -0.31507000
H         3.95536900      3.03348900     -1.08412900
C         4.28037000      6.09729200      0.34069000
H         2.69864600      7.22072900      1.28449700
H         5.66816700      4.77590800     -0.65092000
Cl        5.48478700      7.33011400      0.63167000
Cl        5.61060500     -7.22508700      0.74891800
