61
COc1ccc(-c2ccc3c(c2)c2cc(-c4ccc(OC)cc4)ccc2n3CCP(=O)(O)O)cc1
C         2.98902500     -0.77602700     -0.32060600
C         3.41758500      0.56030500     -0.51085500
C         2.52263600      1.62203700     -0.63174200
C         1.15548400      1.33550100     -0.56586800
C         0.69122200      0.00559000     -0.36695500
C         1.61189900     -1.03903400     -0.24920000
N         0.06278900      2.18893300     -0.66441900
C        -1.10098200      1.44845300     -0.49103300
C        -0.75835700      0.07878200     -0.31411700
C        -2.43532800      1.86616000     -0.47683600
C        -3.42064500      0.89694100     -0.29682600
C        -3.11463200     -0.47596600     -0.13199800
C        -1.76803300     -0.87194100     -0.14221200
C         0.13887400      3.62558600     -0.75009600
C         0.27466400      4.28704300      0.63114300
P         0.42538600      6.08237300      0.57166200
O         1.68574000      6.25690500     -0.45064700
O        -0.88643200      6.48468800     -0.31207700
O         0.56005000      6.85305600      1.83496300
H         4.48735500      0.76377100     -0.58911500
H         2.88729000      2.64008900     -0.78154800
H         1.26006300     -2.05754800     -0.07310400
H        -2.70725800      2.91740000     -0.58895300
H        -4.46519700      1.21181200     -0.25547000
H        -1.50945400     -1.92753900     -0.03761800
H         0.99666100      3.89981300     -1.38082300
H        -0.76047600      4.00168100     -1.25742400
H        -0.59962300      4.05612300      1.25968700
H         1.16688300      3.90789600      1.15359300
H         2.19601100      7.05028700     -0.22776600
H        -1.24179700      7.33830300     -0.02132500
C         3.97800900     -1.87451300     -0.19749800
C         3.72358000     -3.15099300     -0.73981900
C         5.20186100     -1.68978500      0.46277100
C         4.64332600     -4.18531900     -0.62590800
H         2.79334700     -3.32664200     -1.28431100
C         6.13979500     -2.71911800      0.58444900
H         5.42477400     -0.72283000      0.91901500
C         5.86413100     -3.98049500      0.03843400
H         4.44675400     -5.16933400     -1.05560200
H         7.07205500     -2.52798100      1.11534100
C        -4.19722500     -1.47318000      0.05092100
C        -5.42159200     -1.35810000     -0.62397600
C        -4.03480700     -2.58042900      0.90875900
C        -6.44639400     -2.29501200     -0.46244500
H        -5.57624400     -0.52814100     -1.31688700
C        -5.04169200     -3.52174100      1.07901800
H        -3.10599000     -2.69059700      1.47256400
C        -6.26110700     -3.38917600      0.39411900
H        -7.37548400     -2.16639400     -1.01719500
H        -4.91549000     -4.37243000      1.75128000
O        -7.18782800     -4.35461500      0.62186000
O         6.70186900     -5.04668400      0.10029100
C         7.94296000     -4.90026600      0.74829700
H         7.82165000     -4.63891700      1.81532900
H         8.45272000     -5.87022700      0.67553900
H         8.57041000     -4.12874900      0.26588900
C        -8.43014400     -4.27266600     -0.03500400
H        -8.31742700     -4.31085700     -1.13379000
H        -9.01777400     -5.14054100      0.29281100
H        -8.97594200     -3.34918500      0.23126400
