47
COc1ccc(N(c2ccc(OC)cc2)c2ccc(P(=O)(O)O)cc2)cc1
O        -5.64763200      0.44419000     -1.38972900
P        -5.23089600     -0.22915500      0.04136800
C        -3.44347900     -0.13105200     -0.02185900
C        -2.75713500      0.92382400     -0.64728800
C        -1.36830800      0.96915500     -0.64440100
C        -0.61557900     -0.04516400     -0.01206700
C        -1.30926300     -1.10785100      0.60566800
C        -2.69851600     -1.15027600      0.59236300
N         0.78200600      0.00027500     -0.00740200
C         1.55514600     -1.19123900      0.07432200
C         2.61832800     -1.28466800      0.98892200
C         3.39231800     -2.43560500      1.05952900
C         3.11435400     -3.53450200      0.22829700
O         3.91579300     -4.61845000      0.37734300
C         3.68747600     -5.75075100     -0.42876000
C         2.05309500     -3.44965400     -0.68538600
C         1.29345700     -2.27948900     -0.76496200
C         1.47475100      1.24006300     -0.08378200
C         2.52933000      1.40807800     -0.99791200
C         3.22653300      2.60741100     -1.06187300
C         2.87850200      3.68074000     -0.22362600
O         3.60940600      4.81471600     -0.36510600
C         3.31642000      5.92107700      0.45548900
C         1.82498600      3.52211200      0.68904400
C         1.14268800      2.30450600      0.76111600
O        -5.71030100      0.87634600      1.14368900
O        -5.82641500     -1.55450400      0.33268100
H        -6.56302300      0.21682100     -1.61372200
H        -3.31513300      1.70409900     -1.17069800
H        -0.85059200      1.78565800     -1.14795100
H        -0.74730700     -1.90267500      1.09614100
H        -3.22590300     -1.98101400      1.06654600
H         2.83497600     -0.43853800      1.64329300
H         4.22077700     -2.51718800      1.76538200
H         4.43879300     -6.49799500     -0.14117700
H         2.67989600     -6.17438500     -0.26583600
H         3.80417200     -5.52038700     -1.50326100
H         1.81518300     -4.27948900     -1.35013700
H         0.47722600     -2.21528800     -1.48679200
H         2.80063100      0.58121800     -1.65655900
H         4.04818600      2.74677400     -1.76664200
H         4.02018300      6.71582600      0.17500700
H         2.28448700      6.28540800      0.30101800
H         3.45077700      5.68498900      1.52666000
H         1.53592000      4.33053300      1.35998800
H         0.33340100      2.18124700      1.48310700
H        -5.27070000      1.73109700      1.02889400
