66
COC1=CCC(N(c2ccc(OC)cc2)c2cc(F)c(-c3ccc(-c4ccc(C(=O)O)cc4)c4nsnc34)cc2F)C=C1
C         6.67293100     -5.65915900     -0.77276000
O         7.07454900     -4.53816600     -0.02208300
C         6.29128400     -3.42904600     -0.03156600
C         6.74095700     -2.34340800      0.74045600
C         6.00435500     -1.16920000      0.80337800
C         4.80496500     -1.03716500      0.08157000
C         4.36720700     -2.11269600     -0.69611700
C         5.09299800     -3.30644500     -0.74769200
N         4.06868500      0.17667400      0.14193800
C         2.67220500      0.17575100      0.10191900
C         1.95678600      1.11845200     -0.65831700
C         0.57120200      1.11896100     -0.67052700
F        -0.03066800      2.04742600     -1.43872600
C         1.90125400     -0.75597200      0.82917200
F         2.52534900     -1.66106900      1.59949600
C         0.51933000     -0.76821500      0.78338600
C        -0.20792300      0.18487100      0.03975600
C        -1.68153100      0.19899300      0.02117600
C        -2.42173900      1.36458200     -0.09926800
C        -3.84123700      1.39044400     -0.11772400
C        -4.63430800      0.26023900     -0.02059600
C        -3.91900000     -0.98249500      0.09895000
N        -4.46477200     -2.19734600      0.20598500
S        -3.24045500     -3.27924700      0.32522200
N        -1.96815500     -2.24967600      0.24909700
C        -2.45674900     -1.01241400      0.12708400
C        -6.11019400      0.34014600     -0.03048200
C        -6.90590500     -0.67316000     -0.60262300
C        -8.29129100     -0.55592000     -0.63305000
C        -8.92477500      0.56848600     -0.08482400
C        -8.14549000      1.57854500      0.49887000
C        -6.75961800      1.46174200      0.52443900
C       -10.40871500      0.64125200     -0.14014700
O       -10.90432000      1.76504300      0.42367900
O       -11.12441000     -0.20046500     -0.63225400
C         4.76737700      1.41082400      0.02465200
C         4.45457300      2.48406700      0.86540300
C         5.12190300      3.70629600      0.75198900
C         6.13986400      3.86150600     -0.20105700
C         6.46522900      2.78061400     -1.03868600
C         5.78233800      1.57573400     -0.93370300
O         6.85500800      4.99928700     -0.38352000
C         6.57967700      6.11512200      0.43065000
H         7.43874600     -6.43131900     -0.62045200
H         5.69630900     -6.05156100     -0.43529800
H         6.60613400     -5.42908900     -1.85182000
H         7.67293300     -2.45509700      1.29739800
H         6.35404100     -0.33725300      1.41669900
H         3.44280600     -2.02267200     -1.26970100
H         4.71638800     -4.12623500     -1.35854000
H         2.48668400      1.86018500     -1.25467100
H        -0.00283400     -1.52889100      1.35911100
H        -1.89872200      2.31534300     -0.18451700
H        -4.32395700      2.36225800     -0.23519700
H        -6.42850600     -1.55472200     -1.02589700
H        -8.90950000     -1.33394000     -1.08398800
H        -8.63379100      2.44818600      0.93926000
H        -6.16835800      2.24194400      1.00696700
H       -11.87024900      1.71041700      0.33361300
H         3.67275100      2.36222400      1.61741900
H         4.84936600      4.52145300      1.42160500
H         7.25679900      2.91856200     -1.77735800
H         6.03502200      0.74441200     -1.59383600
H         7.26602500      6.91179100      0.11476300
H         5.53969900      6.46770600      0.30613200
H         6.75270600      5.89586700      1.49983700
