56
CC1(C)c2ccccc2-c2cc3c(cc21)c1ccccc1n3CCCCP(=O)(O)O
C         0.40862200      5.53457300      0.30863800
C        -0.90400700      5.25879900     -0.11734800
C        -1.29547900      3.96841900     -0.47889100
C        -0.33695100      2.95135700     -0.40798200
C         0.99436800      3.21231900      0.02939500
C         1.35990900      4.51744000      0.38460800
N        -0.45498700      1.60178000     -0.71553400
C         0.75703200      0.97206900     -0.45661500
C         1.69675400      1.94572300     -0.00083900
C         1.09436500     -0.37963100     -0.59061600
C         2.40475900     -0.73642800     -0.26723300
C         3.35396400      0.22145600      0.18092500
C         3.00925900      1.55859100      0.31684700
C        -1.67612900      0.93016500     -1.09731300
C        -2.48418600      0.41825500      0.09838400
P        -6.08528200     -1.69778100      0.43265200
O        -6.83980000     -0.60066900     -0.50925800
O        -5.54344800     -2.83513500     -0.60739500
O        -6.93425000     -2.25424000      1.51979800
H         0.68120200      6.55544700      0.58493000
H        -1.63467700      6.06982700     -0.16471900
H        -2.31830800      3.76701200     -0.80221600
H         2.37741300      4.73350500      0.71919500
H         0.37070400     -1.12369400     -0.92778600
H         3.73477300      2.29842000      0.66493800
H        -2.28307300      1.62649500     -1.69739000
H        -1.41801900      0.09434100     -1.76745100
H        -1.84876800     -0.25960400      0.69368500
H        -2.72854800      1.27071100      0.75509500
H        -7.80041700     -0.72021600     -0.46138000
H        -6.01367000     -3.66819600     -0.45209600
C         3.05829900     -2.05000000     -0.30134300
C         4.39640600     -1.90044600      0.12234000
C         5.24169900     -3.00377400      0.18075900
C         4.74800900     -4.26359700     -0.18643300
H         5.40371700     -5.13665300     -0.14432900
C         2.56593200     -3.30643900     -0.66782400
C         3.42025200     -4.41195300     -0.60721800
H         3.04965900     -5.40007300     -0.89064800
H         6.27927000     -2.89621000      0.50781200
H         1.53085700     -3.42610400     -0.99743400
C        -3.76209900     -0.30084000     -0.32883300
H        -4.39451200      0.37718400     -0.92564300
H        -3.51310200     -1.14981400     -0.98710300
C        -4.57139500     -0.81701200      0.86447500
H        -3.97732600     -1.51640200      1.47590300
H        -4.87445200      0.00886600      1.52911900
C         4.70035300     -0.44383100      0.46474800
C         5.80703100      0.12074900     -0.44655500
H         5.97339200      1.18957900     -0.23844800
H         6.75840000     -0.40952400     -0.28103000
H         5.53265900      0.01521300     -1.50658800
C         5.09870900     -0.29152700      1.94527700
H         5.24765900      0.76991800      2.19944100
H         4.31711400     -0.69663100      2.60494500
H         6.03930000     -0.82543100      2.15488400
