39
O=P(O)(O)c1ccc(N(c2ccccc2)c2ccccc2)cc1
C        -3.59612800      3.66377600      0.01681100
C        -2.49017100      3.49320400     -0.82172600
C        -1.79273700      2.28516500     -0.83650200
C        -2.18409700      1.23346000      0.00781900
C        -3.29154900      1.40801100      0.85303200
C        -3.99445100      2.61301800      0.84880700
N        -1.48073700      0.00059300     -0.00092000
C        -2.22198000     -1.21058000     -0.00949100
C        -0.07577700     -0.02175600     -0.00432200
C        -1.86417200     -2.27222200      0.83706900
C        -2.59862300     -3.45805600      0.82308400
C        -3.70814200     -3.59557300     -0.01693800
C        -4.07262000     -2.53462300     -0.85134700
C        -3.33260200     -1.35191700     -0.85639600
P         4.53030900     -0.13209400     -0.05336700
O         4.90781600      0.02181100      1.51800500
O         5.10421300     -1.28068500     -0.80363000
O         5.05012200      1.31811800     -0.61093100
C         0.62558100     -1.04578200     -0.66961200
C         2.01671700     -1.06784100     -0.66179500
C         2.74331400     -0.06622500     -0.00152000
C         2.04768800      0.96075300      0.65794200
C         0.65860100      0.98131400      0.66283900
H        -2.17409800      4.30360900     -1.48306300
H        -0.93851200      2.14817400     -1.50153600
H        -3.59634300      0.59110000      1.50906500
H        -1.00639400     -2.16112500      1.50237000
H        -2.30832900     -4.27694800      1.48571300
H        -3.61087800     -0.52706300     -1.51431300
H         5.86590000      0.09365500      1.64844400
H         5.33120100      1.22869200     -1.53346400
H         0.07098000     -1.82381000     -1.19489900
H         2.55980800     -1.86127200     -1.17961800
H         2.59935000      1.74084600      1.18682600
H         0.12675200      1.77338400      1.19071000
H        -4.28519000     -4.52278400     -0.02019400
H        -4.93503300     -2.63135800     -1.51532900
H        -4.85457800      2.73518500      1.51156400
H        -4.14444300      4.60825900      0.02059500
