53
O=P(O)(O)CCn1c2ccc(-c3ccccc3)cc2c2cc(-c3ccccc3)ccc21
C        -1.99875400      2.61848500     -0.20113100
C        -2.98024400      1.62182900     -0.42020400
C        -2.65451700      0.27637200     -0.58090800
C        -1.30352000     -0.08026300     -0.52313900
C        -0.29319000      0.89541400     -0.29603300
C        -0.64914300      2.23756500     -0.14116500
N        -0.70830700     -1.32867100     -0.65664200
C         0.66339700     -1.19265200     -0.48011800
C         0.97034800      0.18003500     -0.26394500
C         1.66883100     -2.16445200     -0.49454900
C         2.98411600     -1.74438800     -0.30569300
C         3.32413100     -0.38543500     -0.09981800
C         2.29858400      0.57254600     -0.07966300
C        -1.41951600     -2.57759800     -0.77310500
C        -1.81897900     -3.15080100      0.59609100
P        -2.76307000     -4.68401300      0.50174900
O        -3.97899900     -4.25001300     -0.49790600
O        -1.77425900     -5.59946800     -0.41733400
O        -3.22234500     -5.34393700      1.75105900
H        -4.02797800      1.92058700     -0.48833800
H        -3.43574500     -0.46631400     -0.75324300
H         0.12054900      2.98629100      0.05616900
H         1.44085900     -3.22237700     -0.63681800
H         3.77756200     -2.49388400     -0.28955500
H         2.54086600      1.62824000      0.05745000
H        -2.31685200     -2.41947500     -1.38811500
H        -0.78977900     -3.29934600     -1.31165800
H        -0.92603200     -3.35490700      1.20739300
H        -2.44009700     -2.42890900      1.14929500
H        -4.80131800     -4.69475700     -0.24189500
H        -1.88519700     -6.53981300     -0.20963800
C        -2.39274400      4.03934500     -0.03171100
C        -1.59563400      5.07809100     -0.54715100
C        -3.57147900      4.38968500      0.65238800
C        -1.96013600      6.41495200     -0.38165900
H        -0.69066700      4.83160100     -1.10662700
C        -3.93888100      5.72618100      0.81530800
H        -4.19444900      3.60379300      1.08483900
C        -3.13446900      6.74634500      0.30009200
H        -1.32758500      7.20318000     -0.79751800
H        -4.85514100      5.97263000      1.35767200
H        -3.42107200      7.79278300      0.42845700
C         4.74009800      0.01474100      0.09493700
C         5.77832400     -0.62381200     -0.60821700
C         5.08509200      1.04663200      0.98730900
C         7.10951100     -0.24649400     -0.42572800
H         5.53539700     -1.40984400     -1.32642200
C         6.41551900      1.42709100      1.16798600
H         4.30053200      1.53963900      1.56526500
C         7.43537300      0.78180400      0.46291500
H         7.89703600     -0.75301500     -0.98934700
H         6.65819600      2.22657300      1.87250600
H         8.47724800      1.07825400      0.60529700
