59
O=P(O)(O)CCCCn1c2ccc(-c3ccccc3)cc2c2cc(-c3ccccc3)ccc21
C         2.11617600      3.05370600     -0.23946800
C         0.80356700      3.42460000     -0.61950400
C        -0.18593800      2.48448600     -0.89956000
C         0.14874900      1.12989700     -0.80014100
C         1.45779800      0.72493100     -0.41486100
C         2.43060900      1.68964600     -0.14078500
N        -0.62895000      0.00142900     -1.02732700
C         0.13547300     -1.12802600     -0.76363500
C         1.44781900     -0.72618000     -0.38644600
C        -0.21326800     -2.48129900     -0.82618900
C         0.76635500     -3.42381500     -0.52039300
C         2.08260400     -3.05618500     -0.14973900
C         2.41048600     -1.69319100     -0.08598000
C        -4.41155900      0.01973200     -0.39353500
C        -5.29241600      0.02518200      0.85842500
P        -7.04966800      0.10347600      0.45993600
O        -7.55062200      1.24552200     -0.35327200
O        -7.29348900     -1.35024700     -0.24059400
O        -7.73655100     -0.01523000      1.93147800
C        -2.04456100      0.00408700     -1.32130200
C        -2.92031300      0.01635700     -0.06509100
H         0.56378600      4.48492000     -0.71883900
H        -1.18629800      2.80663900     -1.19382200
H         3.42854400      1.38187600      0.17780700
H        -1.22244200     -2.80021900     -1.09249800
H         0.50114400     -4.48259800     -0.54032500
H         3.42540300     -1.38812100      0.17648900
H        -4.66420100     -0.86342200     -1.00452200
H        -4.66098200      0.90143400     -1.00848500
H        -5.07776900      0.90081300      1.49255200
H        -5.12470600     -0.87163900      1.47680300
H        -7.96019200     -1.27443500     -0.94000300
H        -8.54164400      0.52327900      1.96836900
H        -2.26740200      0.88098500     -1.94953900
H        -2.27321200     -0.88080000     -1.93651100
H        -2.67077400     -0.86321000      0.55257500
H        -2.66400000      0.90306300      0.53944300
C         3.09312500     -4.09523000      0.16980800
C         3.13255100     -5.31194300     -0.53610200
C         4.04349900     -3.89259000      1.18772500
C         4.08411400     -6.28778600     -0.23612300
H         2.42319500     -5.48401800     -1.34843400
C         4.99784300     -4.86605100      1.48601200
H         4.01658400     -2.96857000      1.76920900
C         5.02280700     -6.06986100      0.77617300
H         4.09869500     -7.22128600     -0.80432700
H         5.72052300     -4.68711900      2.28610700
H         5.76851300     -6.83314400      1.01065500
C         3.13757900      4.09026200      0.05210800
C         2.79000800      5.29279000      0.69505900
C         4.48564000      3.89842100     -0.30335100
C         3.75195800      6.26542600      0.97145400
H         1.75562300      5.45589800      1.00507800
C         5.44899500      4.86870500     -0.02416400
H         4.77643300      2.98595700     -0.82827800
C         5.08722400      6.05822700      0.61438400
H         3.45778800      7.18777200      1.47860800
H         6.48808600      4.69873400     -0.31713100
H         5.84072300      6.81894000      0.83171000
