71
O=P(O)(O)CCCCn1c2cc(-c3ccccc3)c3ccccc3c2c2c3ccccc3c(-c3ccccc3)cc21
C        -3.29673700     -2.39556700      0.09965800
C        -3.54701400     -0.98300100      0.28169500
C        -2.49178300     -0.13266900      0.55096600
C        -1.17299700     -0.62845700      0.51287600
C        -0.85746800     -1.96089400      0.15486100
C        -1.94518800     -2.90042600      0.07902800
N        -0.00835900      0.07404100      0.75619300
C         1.06446800     -0.75687900      0.49283300
C         0.59280100     -2.01987900      0.06017400
C         2.43243500     -0.44203400      0.61026200
C         3.38168900     -1.38681500      0.27063300
C         2.96473700     -2.66492400     -0.25767600
C         1.56325300     -2.96101700     -0.43138400
C         0.24898000      3.86020100      0.20318500
C         0.33897800      4.76176400     -1.03165900
P         0.44215300      6.52740400     -0.67612300
O         0.53632100      7.48952900     -1.80637300
O        -0.86637000      6.75416800      0.27253600
O         1.71307000      6.59067700      0.34603300
C         0.07634800      1.48285900      1.07767500
C         0.16437000      2.37911000     -0.16011400
H        -2.68382100      0.92553000      0.73253500
H         2.75177900      0.54537800      0.94602600
H         1.12806000      4.04037300      0.84401200
H        -0.63256500      4.15249300      0.79762500
H        -0.53958700      4.63185500     -1.68503700
H         1.22718900      4.51942100     -1.63829400
H        -1.23741100      7.63647400      0.12040400
H         2.20747800      7.41287100      0.20884900
H        -0.80214300      1.75317600      1.68350700
H         0.95324100      1.63979500      1.72461000
H         1.04579200      2.08245700     -0.75366400
H        -0.71639500      2.19403600     -0.79846800
C         1.22191500     -4.13386700     -1.15605700
H         0.18179400     -4.30468600     -1.42076600
C         3.91761700     -3.64640000     -0.64517100
C         3.54044800     -4.81469700     -1.27631200
H         4.29529900     -5.54925300     -1.56604400
C         2.18006500     -5.03733200     -1.57313400
C        -1.76317400     -4.30815200      0.09910300
H        -0.75802400     -4.70739300      0.20653900
C        -4.37029000     -3.32489400      0.04039400
C        -4.15064300     -4.68750100     -0.00067400
H        -4.99696500     -5.37742700     -0.03356000
C        -2.83216200     -5.18236300      0.05224200
H        -5.39236200     -2.94773100      0.06619800
H         4.97253900     -3.46026300     -0.44507200
H        -2.65185100     -6.25973400      0.08150400
H         1.87925800     -5.92507100     -2.13483900
C        -4.91959700     -0.41469200      0.22190900
C        -5.73162100     -0.59384400     -0.91281000
C        -5.41696100      0.36242600      1.28193500
C        -6.99981000     -0.01570300     -0.98230400
H        -5.35307700     -1.18124200     -1.75200200
C        -6.68656600      0.94052300      1.21319900
H        -4.80290400      0.49717700      2.17537000
C        -7.48337300      0.75301200      0.08105500
H        -7.61237000     -0.16092600     -1.87557900
H        -7.05758000      1.53464800      2.05204300
H        -8.47739400      1.20324000      0.02674100
C         4.81808300     -1.02292900      0.41349400
C         5.32422000     -0.62912100      1.66359200
C         5.68504100     -1.00703400     -0.69396000
C         6.65793800     -0.23880200      1.80650700
H         4.66177300     -0.64453600      2.53217500
C         7.01722700     -0.61582800     -0.55206500
H         5.30156100     -1.29049600     -1.67627800
C         7.50971700     -0.23240100      0.69928600
H         7.03400000      0.05694600      2.78904900
H         7.67368200     -0.60370300     -1.42567700
H         8.55338000      0.07160000      0.80956800
