54
CC1(C)c2ccccc2-c2cc3c(cc21)c1ccccc1n3-c1ccc(P(=O)(O)O)cc1
C         0.27453100      5.51245700     -0.07185100
C        -1.08472100      5.14935000     -0.07817500
C        -1.48077400      3.81090800     -0.05667300
C        -0.47914300      2.83542400     -0.02213000
C         0.89917700      3.18488900     -0.03338900
C         1.26953600      4.53624100     -0.05468400
N        -0.58986900      1.43945100     -0.02213500
C         0.69774900      0.88626700     -0.03158400
C         1.64998200      1.94589000     -0.03697200
C         1.08425600     -0.45759900      0.00692600
C         2.45570300     -0.71761700      0.01529900
C         3.41819600      0.32720400     -0.00673400
C         3.02490500      1.65686300     -0.02748600
P        -5.72907900     -1.66989300      0.08794700
O        -6.23305300     -1.57098400     -1.44949100
O        -5.32266600     -3.25204000      0.16318200
O        -6.66331400     -1.25079000      1.16498700
H         0.54982800      6.56922100     -0.08711700
H        -1.84959500      5.92902000     -0.10356600
H        -2.53679500      3.54020500     -0.07434800
H         2.32500900      4.81828600     -0.06284800
H         0.35217200     -1.26488400      0.03706300
H         3.75892000      2.46661400     -0.03118800
H        -7.04991400     -2.07297200     -1.59480200
H        -5.45028200     -3.58238700      1.06489700
C         3.16938400     -1.99962800      0.04838800
C         4.55756200     -1.74396700      0.04392100
C         5.46554000     -2.79772900      0.07143500
C         4.98369200     -4.11383400      0.10380800
H         5.68800100     -4.94891600      0.12589500
C         2.68862100     -3.31226200      0.08061500
C         3.60597300     -4.36732200      0.10838800
H         3.24579900     -5.39862500      0.13414800
H         6.54225200     -2.60863900      0.06847300
H         1.61452800     -3.51357100      0.08476100
C         4.83567800     -0.24285900      0.00706900
C         5.60762500      0.14869200     -1.26763800
H         5.74293400      1.24068100     -1.31934800
H         6.60529700     -0.31813700     -1.27854100
H         5.06552100     -0.17398900     -2.16881500
C         5.60880100      0.21099900      1.26003700
H         5.74394000      1.30422600      1.25800500
H         5.06789300     -0.06713800      2.17663100
H         6.60680100     -0.25410500      1.29265100
C        -1.79652500      0.70854800     -0.01058900
C        -2.01503400     -0.30318800     -0.96094200
C        -2.78184100      0.98699300      0.94772700
C        -3.20000900     -1.03278800     -0.94489700
H        -1.25491000     -0.49890600     -1.71831500
C        -3.97518200      0.26654800      0.95113800
H        -2.59988700      1.75990000      1.69553300
C        -4.18941800     -0.74890400      0.00946800
H        -3.36594900     -1.81534400     -1.68799100
H        -4.74960300      0.47477500      1.69229800
