38
O=P(O)(O)c1ccc(N2c3ccccc3Sc3ccccc32)cc1
O        -5.41404900      0.03229600      1.39321800
P        -4.83099300     -0.01491000      0.02731100
O        -5.18188600     -1.28546500     -0.91487400
O        -5.32023200      1.21440200     -0.93144200
C        -3.03322100     -0.02482100     -0.03649700
C        -2.33156600     -0.00716100      1.17695600
C        -0.93670800      0.00136000      1.17386200
C        -0.23964600     -0.00631200     -0.04036800
N         1.19126500      0.00014100     -0.06951600
C         1.85260200      1.24204200      0.08037800
C         1.16513800      2.39224900      0.50432200
C         1.82699000      3.61412900      0.64936200
C         3.19502400      3.71318600      0.40002200
C         3.89231100      2.57711900     -0.01792400
C         3.23021100      1.36088500     -0.20296400
S         4.11830900      0.00773500     -0.93182900
C         3.23973300     -1.34754900     -0.19521300
C         3.91020900     -2.55801700     -0.00271300
C         3.22053200     -3.69592300      0.42276700
C         1.85194100     -3.60454800      0.67218600
C         1.18175700     -2.38815900      0.51963700
C         1.86160600     -1.23648100      0.08770900
C        -0.94048700     -0.02256100     -1.25143800
C        -2.33449200     -0.03092500     -1.25284000
H        -6.13855000     -1.40842300     -1.01591800
H        -5.62302100      1.95759700     -0.38873600
H        -2.89175800     -0.00309200      2.11419400
H        -0.37719000      0.01256800      2.11112200
H         0.09845100      2.33684900      0.71418800
H         1.25955100      4.49053600      0.97045100
H         3.71868800      4.66320000      0.52345700
H         4.96332800      2.62919700     -0.22685000
H         4.98149200     -2.60426800     -0.21164400
H         3.75053100     -4.64165400      0.55194200
H         1.29035500     -4.48259100      0.99890900
H         0.11469800     -2.33891900      0.72937900
H        -0.37516900     -0.02889600     -2.18484500
H        -2.88058100     -0.04416200     -2.19810900
