41
O=P(O)(O)c1ccc(-c2ccc3ccc4cccc5ccc2c3c45)cc1
C        -0.60796200      2.40896000     -0.08641700
C        -0.29160300      1.04224300     -0.02283200
C        -1.34289300      0.08934600      0.03433100
C        -2.70103500      0.54362300     -0.01834600
C        -2.99138300      1.94062100     -0.10961000
C        -1.92465600      2.85376900     -0.13204200
C        -3.77739500     -0.39650900      0.02646500
C        -5.13286200      0.05640900     -0.03942600
C        -5.38607500      1.46774900     -0.14186200
C        -4.36239200      2.36729100     -0.17234800
C        -1.10907100     -1.32425000      0.18306200
C        -2.13761500     -2.21850600      0.23034100
C        -3.50643300     -1.79472300      0.14108700
C        -4.57925000     -2.70282500      0.17946600
C        -5.89724400     -2.25184100      0.10764900
C        -6.17333200     -0.88830500      0.00041200
C         1.14017900      0.64573400     -0.02141900
C         1.65237200     -0.25199000     -0.97466700
C         3.00454800     -0.59160000     -0.98242400
C         3.87395300     -0.03645100     -0.03384900
C         3.37857400      0.86861000      0.91673600
C         2.02705300      1.20421800      0.91829700
P         5.60832400     -0.49568500     -0.09874100
O         5.97405800     -1.44969400     -1.17841600
O         6.46190900      0.89885300     -0.15437300
O         5.87623300     -0.93873200      1.43817000
H         0.20777900      3.13385800     -0.13043600
H        -2.13860300      3.92326700     -0.19890700
H        -6.42388300      1.80679400     -0.19158700
H        -4.56722100      3.43829700     -0.24585500
H        -0.08313000     -1.67965800      0.27460200
H        -1.93088600     -3.28513300      0.34905700
H        -4.36700700     -3.77112300      0.26865400
H        -6.71929900     -2.97081100      0.13802900
H        -7.20778200     -0.53976900     -0.05252700
H         0.98321300     -0.67437600     -1.72677900
H         3.40303600     -1.28679300     -1.72436100
H         4.05035300      1.30299600      1.65998400
H         1.63994200      1.89675800      1.66885800
H         6.79357400      1.04443600     -1.05278300
H         6.80459400     -1.17633200      1.58649100
