67
O=P(O)(O)CCn1c2ccc(-c3ccc(-c4ccccc4)s3)cc2c2cc(-c3ccc(-c4ccccc4)s3)ccc21
C         3.39796300      0.76272600     -0.18071300
C         3.56480400      2.15092400     -0.41863500
C         2.48335200      3.01412400     -0.56864400
C         1.19534100      2.47289500     -0.49133000
C         0.99443500      1.08472300     -0.25161100
C         2.09554500      0.24087800     -0.09848900
N        -0.03954200      3.09586400     -0.61840100
C        -1.04006900      2.15143900     -0.42626300
C        -0.44260700      0.87829800     -0.20576700
C        -2.43000100      2.30665800     -0.43078300
C        -3.21304700      1.17511100     -0.21930300
C        -2.64904700     -0.10845700     -0.00845500
C        -1.24963300     -0.24304300     -0.00911100
C        -0.24836200      4.51763100     -0.74385800
C        -0.31219800      5.22022100      0.62138000
P        -0.58165300      7.00026800      0.51554100
O         0.62993800      7.43920700     -0.48540400
O        -1.92777300      7.06153000     -0.40518900
O        -0.66395600      7.80712800      1.76008900
H         4.57484100      2.55432300     -0.50541900
H         2.64694600      4.07775600     -0.75096300
H         1.94381300     -0.82147500      0.10510300
H        -2.89733700      3.28111700     -0.58310100
H        -4.29942200      1.28477800     -0.19766500
H        -0.79464900     -1.22549500      0.12751300
H         0.56435400      4.94565700     -1.34727800
H        -1.18075500      4.69301100     -1.29868400
H        -1.13094400      4.80737500      1.23136800
H         0.62481700      5.06858900      1.17978800
H         0.93103100      8.33819700     -0.28348600
H        -2.47921100      7.81719500     -0.15125700
C        -3.50165100     -1.27922400      0.21849500
C        -3.18615000     -2.47094400      0.84366200
S        -5.15926200     -1.31471300     -0.33399200
C        -4.26172100     -3.39651700      0.88081700
H        -2.20835700     -2.66699900      1.28428700
C        -5.41758200     -2.92988700      0.28431900
H        -4.18378000     -4.38941100      1.32420200
C         4.57396500     -0.09693200     -0.01787100
C         5.86200300      0.25243400      0.34211800
S         4.47687500     -1.82026500     -0.29166800
C         6.75519400     -0.84940900      0.40249500
H         6.15402700      1.27597300      0.57793000
C         6.16715700     -2.05945000      0.08745000
H         7.81081200     -0.75286700      0.65721100
C        -6.71317500     -3.60012900      0.14204700
C        -7.04484700     -4.69654500      0.96327700
C        -7.65937900     -3.17901400     -0.81288600
C        -8.26876000     -5.34914500      0.82634600
H        -6.34155100     -5.02805000      1.72920200
C        -8.88693300     -3.82773500     -0.94192400
H        -7.42211800     -2.34110800     -1.47264000
C        -9.19841900     -4.91865700     -0.12568900
H        -8.50337800     -6.19566900      1.47635900
H        -9.60276900     -3.48224000     -1.69173000
H       -10.15902900     -5.42846500     -0.22857100
C         6.77323300     -3.39333000      0.04933000
C         6.17467700     -4.45426400     -0.65825400
C         7.98456500     -3.64758800      0.72351300
C         6.76343300     -5.71785800     -0.69103500
H         5.24302800     -4.28099000     -1.20200400
C         8.57583400     -4.90904700      0.68191700
H         8.45696200     -2.85114500      1.30119200
C         7.96900800     -5.95273500     -0.02408500
H         6.27952700     -6.52344200     -1.24856000
H         9.51423200     -5.08185900      1.21455900
H         8.43142800     -6.94200300     -0.05185500
