65
O=P(O)(O)CCCCn1c2ccc(-c3csc4ccccc34)cc2c2cc(-c3csc4ccccc34)ccc21
C         2.21696700     -2.47885800     -0.63573800
C         3.01773900     -1.38153000     -1.03688800
C         2.49638400     -0.09746600     -1.18256300
C         1.13427700      0.09202500     -0.92496900
C         0.30607600     -0.99138000     -0.51625700
C         0.85470400     -2.26924200     -0.37558000
N         0.36795800      1.24800900     -1.00016400
C        -0.93265300      0.94735800     -0.61632300
C        -1.02123900     -0.44114000     -0.31473100
C        -2.05052200      1.78212400     -0.51021300
C        -3.25802400      1.21170400     -0.11229300
C        -3.37830900     -0.16834300      0.18334900
C        -2.24581100     -0.98907000      0.07761100
C         1.89905200      4.70602200     -0.36219600
C         2.39661900      5.44897700      0.88134800
P         3.04051900      7.10512100      0.56915400
O         3.54952200      7.91172300      1.71022900
O         4.16043400      6.81483900     -0.58202000
O         1.79723900      7.80407100     -0.22453200
C         0.87383800      2.57246500     -1.28391200
C         1.36788400      3.31138100     -0.03702900
H         4.07181200     -1.55314200     -1.26153000
H         3.13929100      0.72690500     -1.49575900
H         0.23371000     -3.10432600     -0.04445500
H        -1.98754100      2.85161700     -0.71816400
H        -4.13364000      1.85288800      0.00257900
H        -2.33155200     -2.05719100      0.28829500
H         1.11035900      5.30528200     -0.84674100
H         2.72351600      4.63372200     -1.09084700
H         3.20877300      4.89389800      1.37931500
H         1.59024400      5.56927000      1.62362000
H         4.89904300      7.43574000     -0.49099100
H         1.74984000      8.74616200     -0.00192400
H         1.68788200      2.48246800     -2.02065000
H         0.07618200      3.14980700     -1.77784100
H         0.53991600      3.37990300      0.68913400
H         2.15540600      2.70834200      0.44643100
C         2.80061000     -3.83247400     -0.52040400
C         2.21535200     -4.95573800     -1.04263100
C         4.04911300     -4.14919200      0.15497500
S         3.11549500     -6.42331300     -0.77112400
H         1.29085300     -4.99400800     -1.61719900
C         4.35307500     -5.53551200      0.09253200
C        -4.67024600     -0.73040600      0.63188400
C        -4.79832900     -1.56903600      1.70766300
C        -5.95543000     -0.47715500     -0.00008400
S        -6.43384000     -2.08130500      2.02445700
H        -3.99771500     -1.89710900      2.36923600
C        -7.01744200     -1.14983900      0.66154100
C        -6.25489600      0.27891300     -1.15125700
C        -8.34186600     -1.05750600      0.21481900
C         5.50398700     -6.06661900      0.68879500
C         4.92589100     -3.30207300      0.86218900
C         6.36105700     -5.20244100      1.36311200
H         7.26469500     -5.59703300      1.83342800
C         6.06852500     -3.82781100      1.45396700
H         6.74565700     -3.16841700      2.00176700
C        -7.56882800      0.37158600     -1.59535700
H        -7.79731700      0.95789700     -2.48834000
C        -8.60955200     -0.28767800     -0.91291900
H        -9.63625100     -0.20190300     -1.27623800
H        -9.14418500     -1.58171500      0.73836500
H        -5.45165300      0.77891600     -1.69478400
H         5.71990100     -7.13543700      0.62863000
H         4.69719800     -2.23887800      0.95111800
