17
O=P(O)(O)c1ccccc1
C        -3.12766100     -0.03553900      0.02305900
C        -2.46223400      1.19234200     -0.01932200
C        -1.06595100      1.22940500     -0.04077000
C        -0.33656400      0.03281800     -0.01972900
C        -1.00537200     -1.20053400      0.02441900
C        -2.39960300     -1.23080200      0.04453600
P         1.45729800      0.13650200     -0.02341800
O         2.01706900      1.51336000     -0.04227500
O         1.97870000     -0.75360100      1.24613700
O         1.82978300     -0.85735100     -1.24952400
H        -3.03180200      2.12446500     -0.03723700
H        -0.52678400      2.17841500     -0.07629000
H        -0.43377600     -2.13081800      0.04079500
H        -2.92283700     -2.18937200      0.07697600
H         2.26669100     -0.16725100      1.96138400
H         2.78903800     -0.94470600     -1.36135100
H        -4.22010300     -0.06367500      0.03912400
