51
COc1ccc2c(c1)c1cc(OC)ccc1n2-c1ccc(CCP(=O)(O)O)cc1
C         3.78493200      3.28209800      0.12525800
C         2.39411200      3.50058700      0.03600300
C         1.49930500      2.42937400     -0.05681600
C         2.00980400      1.13164100     -0.06494600
C         3.40976900      0.90126600      0.04103300
C         4.29343700      1.97760500      0.13291400
N         1.34577000     -0.10098000     -0.12198700
C         2.30406000     -1.12113800     -0.05501600
C         3.59791700     -0.53797500      0.04532400
C         2.15009900     -2.50590400     -0.11468400
C         3.29282900     -3.31022500     -0.05139000
C         4.57844500     -2.74123200      0.06489600
C         4.73119100     -1.35014800      0.10799300
C        -0.04995200     -0.28305900     -0.22549400
C        -0.72542000     -1.12425700      0.67073200
C        -2.10273300     -1.30898200      0.55557100
C        -2.84468400     -0.65055300     -0.43558500
C        -2.15949100      0.19516000     -1.32005700
C        -0.77955200      0.37207600     -1.22858300
P        -6.87219500      0.13453600      0.30509900
O        -7.67709400      1.10271200      1.09721200
O        -7.11807600     -1.42202200      0.73113500
O        -7.17692300      0.18267300     -1.29745700
O         4.70584800      4.28332800      0.21284800
O         5.72739000     -3.47143500      0.13616300
C         5.64914400     -4.87374600      0.08719100
C         4.26459200      5.61759500      0.22480800
C        -4.34363400     -0.80572200     -0.51535300
C        -5.07214200      0.24806400      0.33875200
H         1.99351300      4.51364100      0.04093900
H         0.42680100      2.61764100     -0.11395400
H         5.37169200      1.83229800      0.21608900
H         1.16559800     -2.96361400     -0.21580800
H         3.17038700     -4.39176500     -0.09684600
H         5.73613600     -0.93196800      0.18464100
H        -0.16462200     -1.62397800      1.46202200
H        -2.61494000     -1.97141900      1.25898200
H        -2.71459000      0.71032500     -2.10906300
H        -0.25452400      1.00726200     -1.94361500
H        -7.93186700     -1.49791300      1.25192600
H        -8.02624700      0.61958100     -1.46183500
H         6.67869600     -5.24974600      0.15949700
H         5.06005500     -5.28571500      0.92752300
H         5.20538100     -5.23147400     -0.86041900
H         5.16229800      6.24591600      0.30166700
H         3.72256900      5.88337500     -0.70172700
H         3.60709900      5.82913400      1.08839300
H        -4.68041600     -0.71081200     -1.55874700
H        -4.64077700     -1.80791600     -0.17156900
H        -4.77430500      0.17119800      1.39677200
H        -4.81673500      1.26756100      0.00802400
