58
COc1ccc(N(c2ccc(OC)cc2)c2ccc(-c3ccc(P(=O)(O)O)c4nsnc34)cc2)cc1
S         4.51821600      1.90973300      2.27076800
N         3.16601100      1.32029700      1.55454900
C         3.55737800      0.50277500      0.57352400
C         2.69643100     -0.25047700     -0.31043300
C         3.34624100     -1.04837100     -1.24223600
C         4.76016800     -1.14565000     -1.34028000
C         5.61014300     -0.43941800     -0.51426600
C         5.01099900      0.40489100      0.47162600
N         5.65747800      1.14956000      1.36989200
C         1.22661600     -0.19445900     -0.22829700
C         0.53642600      0.95417100      0.21073000
C        -0.85145200      0.99840800      0.24547600
C        -1.62388700     -0.11200000     -0.15177800
C        -0.94258700     -1.26962600     -0.58227300
C         0.44464300     -1.30263300     -0.61517600
N        -3.02300000     -0.07143900     -0.11417300
C        -3.77928300     -1.25650500      0.09495400
C        -4.87851600     -1.55232100     -0.71808700
C        -5.64661500     -2.70016900     -0.50328300
C        -5.30683800     -3.58648800      0.52918300
C        -4.20004200     -3.29533800      1.34569500
C        -3.45508000     -2.14206700      1.13857400
C        -3.72048600      1.15689900     -0.27025400
C        -3.40055600      2.03802900     -1.31898300
C        -4.08705200      3.23511200     -1.47224000
C        -5.13119000      3.57676200     -0.59502500
C        -5.46749100      2.69586200      0.44309000
C        -4.75701400      1.50285300      0.60313500
H         2.74895700     -1.61485600     -1.95800400
H         5.20172400     -1.79157900     -2.10265000
H         1.10093800      1.82460800      0.53939000
H        -1.35170800      1.90320300      0.59147600
H        -1.51201500     -2.14766100     -0.88763000
H         0.93453500     -2.22410300     -0.93496700
H        -5.14178600     -0.86879100     -1.52718000
H        -6.49806800     -2.89570800     -1.15453500
H        -3.95433300     -3.98953000      2.15130600
H        -2.60564600     -1.91751100      1.78606300
H        -2.60011400      1.77560900     -2.01287400
H        -3.84354500      3.92625700     -2.28112200
H        -6.27109100      2.93002900      1.14076100
H        -5.01621700      0.82411700      1.41746700
O        -5.97873500     -4.73031200      0.81499600
O        -5.74974700      4.76138600     -0.83104000
C        -7.09361600     -5.07951500      0.02916500
H        -7.47637400     -6.02766400      0.42944200
H        -7.89220600     -4.31767100      0.08742800
H        -6.81983000     -5.22312800     -1.03186700
C        -6.79887000      5.16222500      0.01801700
H        -7.14674500      6.13665100     -0.34967100
H        -7.64230300      4.44833300     -0.00592700
H        -6.46094600      5.27392300      1.06430400
P         7.38044600     -0.64460500     -0.71718500
O         7.74405200     -1.62368600     -1.77557400
O         7.88298000      0.88399000     -0.87467100
H         8.80389800      0.99568800     -0.59560600
O         8.01187300     -1.02331400      0.74176400
H         8.26711300     -1.95801000      0.74086600
