37
O=P(O)(O)CCc1cc2ccc3cccc4ccc(c1)c2c34
C        -6.03120500     -0.40138900     -0.00100000
C        -5.48778300      0.88502100     -0.00098400
C        -4.09579900      1.07656100     -0.00053800
C        -3.23886700     -0.06763200     -0.00009600
C        -3.80205100     -1.38129200     -0.00011600
C        -5.20148700     -1.52284600     -0.00057200
C        -1.82261200      0.10131500      0.00035800
C        -0.96234300     -1.03599200      0.00078500
C        -1.55638700     -2.34567100      0.00074900
C        -2.91102900     -2.51006800      0.00032600
C        -3.49518600      2.38491700     -0.00051500
C        -2.14130800      2.54581800     -0.00009200
C        -1.25323600      1.41239500      0.00036300
C         0.14170200      1.54867700      0.00080000
C         0.99566600      0.43502500      0.00125800
C         0.43198100     -0.84404900      0.00122400
C         2.49215200      0.67819200      0.00198200
C         3.36631800     -0.57612200      0.00029100
P         5.13964700     -0.24921100     -0.00051500
O         5.30359100      0.73126600      1.29334400
O         6.08139300     -1.40054200     -0.00271500
O         5.30426700      0.73408200     -1.29243500
H        -7.11612100     -0.53048100     -0.00135200
H        -6.14473000      1.75847100     -0.00132300
H        -5.63404700     -2.52652300     -0.00058800
H        -0.89467400     -3.21571000      0.00108700
H        -3.34539600     -3.51305500      0.00031400
H        -4.15466300      3.25660200     -0.00084900
H        -1.70358100      3.54732800     -0.00007800
H         1.06952800     -1.72960000      0.00153200
H         2.75302500      1.29290900     -0.87520100
H         2.75264700      1.29027500      0.88109600
H         3.17690200     -1.20389100      0.88574600
H         3.17608300     -1.20182100     -0.88646300
H         6.15905900      0.57615600      1.72151900
H         6.15318200      0.56779700     -1.72934600
H         0.57290300      2.55411100      0.00074700
