40
O=P(O)(O)CCCCN1c2ccccc2Sc2ccccc21
C         3.16554400      3.71671200      0.50735900
C         1.78639000      3.62480900      0.33662700
C         1.18908400      2.40155000      0.01976000
C         1.95448500      1.23395600     -0.16470700
C         3.35636900      1.35327200     -0.02383200
C         3.94304700      2.56940000      0.33293900
N         1.35505000     -0.00045200     -0.49250100
C         1.95610900     -1.23406900     -0.16474300
C         3.35814500     -1.35151500     -0.02379700
C         1.19226300     -2.40269100      0.01962200
C         1.79117600     -3.62514300      0.33656600
C         3.17043400     -3.71519000      0.50745600
C         3.94641800     -2.56684600      0.33306500
C        -0.04211500     -0.00129000     -0.90777700
C        -1.08613500     -0.00194700      0.21973500
H         1.15365700      4.50645400      0.46116200
H         0.10726600      2.37115800     -0.08333400
H         5.02845000      2.61257400      0.44977500
H         0.11042100     -2.37371200     -0.08359400
H         1.15961700     -4.50763800      0.46104900
H         5.03186700     -2.60856500      0.44999500
H        -0.20047800      0.87602900     -1.55294600
H        -0.19945100     -0.87866000     -1.55313900
H        -0.93873600     -0.87908000      0.86893200
H        -0.93760700      0.87352600      0.87092000
C        -2.50876500     -0.00038300     -0.33731700
H        -2.65922800      0.88256400     -0.98065300
H        -2.66009600     -0.88104800     -0.98359200
C        -3.57214300     -0.00173400      0.76477400
H        -3.47314500      0.88231300      1.41628200
H        -3.47381900     -0.88804200      1.41331600
P        -5.27768500     -0.00043900      0.17700400
O        -6.38570600     -0.00324200      1.16931000
O        -5.28772300      1.29536000     -0.81510800
H        -6.15900800      1.71948100     -0.79869300
O        -5.29039400     -1.29141300     -0.82177700
H        -6.15721100     -1.72391000     -0.79261700
S         4.42352500      0.00157200     -0.44388100
H         3.63681400      4.66610000      0.76886100
H         3.64294600     -4.66393600      0.76904700
