43
N#C/C(=C\c1ccc(N2c3ccccc3Sc3ccccc32)cc1)P(=O)(O)O
C        -2.25124800     -2.38111300      0.44450100
C        -2.95974000     -1.23533300      0.04513600
C        -4.35347900     -1.34795500     -0.14271000
C        -5.00853800     -2.55666800      0.10580500
C        -4.29056200     -3.69012700      0.49474300
C        -2.90857600     -3.59623600      0.65313000
N        -2.30260100      0.00041500     -0.17124800
C        -2.95119700      1.24329400      0.02740500
C        -4.34532700      1.35919100     -0.15829600
S        -5.27894400      0.00439500     -0.82505400
C        -2.23686600      2.39371300      0.40232000
C        -2.88910100      3.61417000      0.59566400
C        -4.27162300      3.71041300      0.44443600
C        -4.99496700      2.57382300      0.07517500
C        -0.87577500     -0.00974200     -0.25447000
C        -0.08017600      0.02673400      0.90047700
C         1.30690800      0.01362900      0.80441000
C         1.93512000     -0.03912900     -0.45976700
C         1.12025200     -0.07966800     -1.61109500
C        -0.26806100     -0.06425100     -1.51193200
C         3.37742400     -0.05612200     -0.66680200
C         4.40715700     -0.01413900      0.22244500
P         6.08017800     -0.03220000     -0.46956800
O         6.73011700     -1.25515900      0.35694500
O         6.11020000     -0.06216500     -1.95392100
O         6.86668000      1.23391000      0.18478000
C         4.28680000      0.06689700      1.63943500
N         4.22866100      0.13802200      2.79822400
H        -1.17287700     -2.32887500      0.58566800
H        -6.09148200     -2.60503900     -0.02922200
H        -4.80992100     -4.63468400      0.66807900
H        -2.32639600     -4.47063700      0.95231300
H        -1.15766800      2.34165100      0.53595200
H        -2.30203700      4.49124700      0.87701500
H        -4.78700700      4.65907900      0.60680700
H        -6.07820300      2.62411500     -0.05678100
H        -0.56349300      0.06430600      1.87834800
H         1.90089700      0.04264200      1.71631400
H         1.59202800     -0.12294900     -2.59554000
H        -0.89824300     -0.09479900     -2.40206000
H         3.69480400     -0.11117200     -1.71358500
H         7.69634500     -1.29113100      0.28446700
H         6.93473600      1.95889900     -0.45471400
