75
CC(C)(C)c1cc2ccc3ccc(-c4ccc5c(c4)c4ccccc4n5CCCCP(=O)(O)O)c4ccc(c1)c2c34
C         0.28114000     -1.87567400     -0.61904200
C        -0.36676500     -0.82995600     -1.32049400
C        -1.75130400     -0.67327400     -1.30752500
C        -2.50999000     -1.59355600     -0.57550600
C        -1.88692400     -2.65570500      0.13891000
C        -0.49560600     -2.79097200      0.10545300
N        -3.88531300     -1.67464400     -0.40336300
C        -4.16975700     -2.74705100      0.43445100
C        -2.95202100     -3.39573000      0.78878500
C        -5.40510900     -3.20162100      0.90981300
C        -5.40936900     -4.32416000      1.73948200
C        -4.21560600     -4.98010600      2.09304800
C        -2.98562700     -4.52076500      1.62209000
C        -6.11302900      1.44659500     -0.46589200
C        -6.37436100      2.59908500      0.50864400
P        -7.56287500      3.82796600     -0.06716100
O        -7.89070900      4.98484700      0.80825500
O        -6.92947100      4.25494300     -1.50948000
O        -8.85368900      2.89952000     -0.43631500
C        -4.85011500     -0.71644700     -0.89343500
C        -5.09864700      0.44219000      0.07668700
H         0.24023200     -0.13553100     -1.90450900
H        -2.21928200      0.14221100     -1.86176000
H        -6.33785500     -2.69925300      0.64751900
H        -6.36135700     -4.69856100      2.12349800
H        -7.06682100      0.93802400     -0.68390900
H        -5.75726000      1.86024800     -1.42414900
H        -5.44654800      3.15208400      0.73012200
H        -6.76169500      2.22692500      1.47153700
H        -7.11127400      5.19010300     -1.68770300
H        -9.67255700      3.38436900     -0.25270900
H        -4.49552700     -0.33203800     -1.86289900
H        -5.79299800     -1.24726700     -1.10097300
H        -5.44814500      0.03214600      1.03962600
H        -4.13893200      0.94574500      0.28391600
H        -2.05940300     -5.02908400      1.90042400
H        -4.25555600     -5.85516900      2.74525600
C         1.75701000     -2.03841400     -0.68847200
C         2.65505200     -0.98977800     -0.35679200
C         2.28046800     -3.27506200     -1.10400000
C         4.06457700     -1.20117300     -0.50186300
C         2.21600900      0.28266200      0.15918800
C         3.64842800     -3.48890100     -1.23267000
H         1.58314800     -4.07588600     -1.35961600
C         4.98448500     -0.15316500     -0.19178400
C         4.56502500     -2.46236500     -0.95035100
C         3.09756700      1.27908200      0.45922600
H         1.15017600      0.43749100      0.32516800
H         4.02086300     -4.45838300     -1.57326500
C         4.51359200      1.10783300      0.28235800
C         6.38866000     -0.35037400     -0.34689300
C         5.98399500     -2.63715300     -1.09570500
H         2.73474900      2.23123200      0.85533200
C         5.43722200      2.12196900      0.57486300
C         7.27273200      0.70071000     -0.04092800
C         6.85646600     -1.62791400     -0.81118600
H         6.35228900     -3.60585100     -1.44327800
C         6.82105600      1.94307800      0.41915500
H         5.04767100      3.07600900      0.93676200
H         8.33848500      0.51564800     -0.17276300
H         7.93304600     -1.77642000     -0.92850200
C         7.77755500      3.09757100      0.75893500
C         7.60965600      3.47602400      2.24571100
H         8.28886100      4.30241200      2.51126400
H         6.58288000      3.80027300      2.47131400
H         7.84111700      2.61840400      2.89644500
C         9.24822700      2.72297500      0.52009000
H         9.56148300      1.87488300      1.14806400
H         9.43666500      2.45958900     -0.53200400
H         9.89508400      3.57805200      0.76989800
C         7.43939600      4.31671200     -0.12466800
H         8.11490000      5.15674400      0.10500000
H         7.54939100      4.06952400     -1.19209500
H         6.40764100      4.66361600      0.03472400
H        -0.00672500     -3.59676000      0.65744200
