35
O=C(O)CCc1ccc2ccc3cccc4ccc1c2c34
O         6.32707300      0.26041300     -0.00086700
C         5.19383000     -0.47089900      0.00016400
C         3.96607300      0.41062600     -0.00007100
C         2.67497700     -0.39570500     -0.00017300
C         1.39018200      0.40400300     -0.00007600
C         1.38829100      1.80386900      0.00000300
C         0.20410600      2.54070900      0.00008700
C        -1.04223500      1.90027600      0.00008400
C        -2.28196200      2.62935300      0.00016200
C        -3.48243500      1.98470600      0.00014900
C        -1.07602500      0.47047700     -0.00000400
C         0.14359800     -0.27757600     -0.00008000
C         0.05289600     -1.71475500     -0.00015700
C        -1.15104100     -2.35709000     -0.00017200
C        -2.38878000     -1.63070600     -0.00010600
C        -3.63960800     -2.27450400     -0.00012300
C        -4.82081900     -1.53384700     -0.00005300
C        -4.78143500     -0.13837200      0.00003700
C        -3.55513100      0.54804100      0.00005600
C        -2.33710300     -0.20281200     -0.00001700
O         5.19848900     -1.67678400      0.00122400
H         7.06697400     -0.37077500     -0.00050000
H         4.03853500      1.07520000      0.87711400
H         4.03874900      1.07525700     -0.87717600
H         2.68849400     -1.07094300     -0.87180000
H         2.68853400     -1.07116100      0.87127500
H         2.33378200      2.34723400     -0.00000700
H         0.24322600      3.63291100      0.00015000
H        -2.23892900      3.72151700      0.00023100
H        -4.41691600      2.55149000      0.00020700
H         0.96831000     -2.30646600     -0.00020100
H        -1.19011200     -3.44940700     -0.00023000
H        -3.67423500     -3.36681900     -0.00019200
H        -5.78445700     -2.04876600     -0.00006800
H        -5.71071200      0.43692400      0.00009300
