33
O=C(O)/C=C/c1ccc2ccc3cccc4ccc1c2c34
O        -6.30560500      0.20543000      0.00009700
C        -5.15934800     -0.51289700      0.00010800
C        -3.97034300      0.35956500      0.00005200
C        -2.73730300     -0.19090500      0.00005100
C        -1.45334500      0.49988600      0.00000200
C        -1.40166900      1.90966800     -0.00005300
C        -0.20327800      2.60155900     -0.00009800
C         1.02579900      1.91457500     -0.00009100
C         2.28081400      2.60959900     -0.00013700
C         3.46521800      1.93235300     -0.00013000
C         1.01668100      0.48575800     -0.00003600
C        -0.22629900     -0.23023200      0.00001100
C        -0.16702100     -1.66823100      0.00006600
C         1.02012300     -2.34017900      0.00007400
C         2.27631400     -1.64792900      0.00002700
C         3.50860200     -2.32472800      0.00003500
C         4.71051000     -1.61631900     -0.00001100
C         4.70738400     -0.22154500     -0.00006500
C         3.49809700      0.49696400     -0.00007400
C         2.26025600     -0.22023100     -0.00002800
O        -5.15649800     -1.72500600      0.00014200
H        -7.03236400     -0.43991300      0.00012900
H        -2.33497400      2.47402900     -0.00006000
H        -0.20211100      3.69415400     -0.00014000
H         2.26674200      3.70226600     -0.00017900
H         4.41402800      2.47467500     -0.00016500
H        -1.09104800     -2.24408900      0.00010300
H         1.02841300     -3.43298600      0.00011600
H         3.51353100     -3.41748900      0.00007700
H         5.65973400     -2.15702500     -0.00000500
H         5.65083200      0.32996600     -0.00010100
H        -2.73035600     -1.28238000      0.00009100
H        -4.15275300      1.43502500      0.00001500
