37
O=P(O)(O)CCc1ccc2ccc3cccc4ccc1c2c34
C        -5.35993300     -1.71059700      0.00019200
C        -4.13833200     -2.38259600      0.00004200
C        -2.92640300     -1.66829700     -0.00005800
C        -2.95632800     -0.23982700      0.00000200
C        -4.21515500      0.44032700      0.00015600
C        -5.40016700     -0.31509500      0.00025100
C        -1.73595100      0.50460000     -0.00010000
C        -1.78341200      1.93393300     -0.00006500
C        -3.06277000      2.59105100      0.00008800
C        -4.22444900      1.87885800      0.00020200
C        -1.64916600     -2.32280900     -0.00022200
C        -0.48396500     -1.61259200     -0.00030100
C        -0.47570000     -0.17268200     -0.00025800
C         0.72874100      0.58011800     -0.00031300
C         0.64865300      1.97680900     -0.00030800
C        -0.57578600      2.64472500     -0.00019100
C         2.05798800     -0.14684800     -0.00045400
C         3.30180800      0.74281200     -0.00004600
P         4.85752000     -0.16948100      0.00015700
O         4.67750900     -1.15022500     -1.29162500
O         6.13537200      0.59171600     -0.00046600
O         4.67722800     -1.14868400      1.29298900
H        -6.29261600     -2.27965400      0.00027000
H        -4.11040300     -3.47510200     -0.00000500
H        -6.36080000      0.20605500      0.00037300
H        -3.08225600      3.68386600      0.00012200
H        -5.18966200      2.39155500      0.00033600
H        -1.62570900     -3.41558700     -0.00028100
H         0.46388700     -2.15076400     -0.00042800
H         1.56240900      2.57190200     -0.00037900
H        -0.59917000      3.73732200     -0.00018800
H         2.10738800     -0.81285100      0.87667600
H         2.10756900     -0.81224700     -0.87804700
H         3.33662600      1.39648600     -0.88616100
H         3.33631700      1.39594100      0.88648800
H         5.53233800     -1.28380700     -1.72828100
H         5.53237800     -1.28471200      1.72824200
