73
COc1ccc(-c2ccc(N(c3ccc(C(=O)O)cc3)c3ccc(-c4ccc(OC)cc4OC)cc3)cc2)c(OC)c1
C        -9.23470400     -4.06823200      0.03256200
O        -8.39039000     -3.69257500      1.09398700
C        -7.26780400     -2.97867200      0.82837900
C        -6.88441000     -2.58316400     -0.46158700
C        -5.70827400     -1.84004600     -0.64900900
O        -5.28889700     -1.44988000     -1.88089100
C        -6.02396900     -1.81985800     -3.02195600
C        -4.89066800     -1.47707800      0.44726700
C        -3.62879200     -0.71393500      0.28985000
C        -2.49189300     -1.06471500      1.04135100
C        -1.30660800     -0.33812300      0.95654900
C        -1.21355000      0.76561600      0.09691300
N         0.00078600      1.49438000     -0.00960800
C        -0.00314300      2.89559900     -0.01188300
C         0.97976300      3.61852300     -0.72238800
C         0.97282800      5.00597600     -0.71828000
C        -0.01231800      5.72034800     -0.01646600
C         0.02590400      7.19895200     -0.05001700
O        -0.97973700      7.77402700      0.65206700
O         0.85449000      7.86257000     -0.63390300
C        -0.99393600      5.00376000      0.68832900
C        -0.98970200      3.61476600      0.69587600
C         1.21940000      0.77188500     -0.11142900
C         2.33774800      1.13486000      0.65541300
C         3.52670600      0.41839500      0.55843600
C         3.64230000     -0.69608600     -0.29430500
C         4.90814000     -1.45371200     -0.44632600
C         5.72649200     -1.80631500      0.65273000
O         5.30388100     -1.41143400      1.88205200
C         6.04039000     -1.77030400      3.02569000
C         6.90655700     -2.54448800      0.47061100
C         7.29315300     -2.94530900     -0.81675300
O         8.41952300     -3.65510900     -1.07728900
C         9.26537800     -4.01946800     -0.01319000
C         6.49726500     -2.60776300     -1.91874300
C         5.33175900     -1.87746500     -1.71769300
C         2.50769400     -1.05728200     -1.04432900
C         1.31863300     -0.33636600     -0.96451600
C        -2.33416300      1.11793600     -0.67166700
C        -3.51928200      0.39585400     -0.56984500
C        -5.31100500     -1.89584800      1.72138100
C        -6.47259600     -2.63091500      1.92768900
H       -10.07011800     -4.62525700      0.47706900
H        -9.63676500     -3.18983100     -0.50440100
H        -8.71745400     -4.72087400     -0.69414000
H        -7.49240300     -2.85468100     -1.31930800
H        -7.04712100     -1.40276900     -3.00654300
H        -5.48555600     -1.40848500     -3.88596900
H        -6.08967900     -2.91741500     -3.13012600
H        -2.53462500     -1.93337500      1.70179100
H        -0.43818100     -0.63156900      1.54861000
H         1.74293500      3.07739400     -1.28196000
H         1.72633400      5.56814000     -1.27281900
H        -0.85276200      8.73275000      0.56143300
H        -1.75701100      5.54824300      1.24553500
H        -1.74927500      3.07063100      1.25740300
H         2.27022900      1.99206100      1.32748800
H         4.38220600      0.72203100      1.16039100
H         5.49919700     -1.35675800      3.88693600
H         6.11223000     -2.86681000      3.14056700
H         7.06118100     -1.34754900      3.00834700
H         7.51517700     -2.80798400      1.33037000
H        10.10412400     -4.57453700     -0.45385800
H         9.66225800     -3.13554200      0.51853900
H         8.75144800     -4.67052700      0.71730000
H         6.81586200     -2.91803000     -2.91452200
H         4.72624600     -1.60078700     -2.58325200
H         2.55540200     -1.92955900     -1.69963600
H         0.45216000     -0.63775400     -1.55545200
H        -2.27117000      1.97113500     -1.34926800
H        -4.37649100      0.69102600     -1.17359800
H        -4.70600900     -1.61138100      2.58477900
H        -6.78858700     -2.93734300      2.92548700
