73
COc1ccc(OC)c(-c2ccc(N(c3ccc(C(=O)O)cc3)c3ccc(-c4cc(OC)ccc4OC)cc3)cc2)c1
C        -7.30363500     -3.08441200     -0.09312800
C        -6.76497600     -2.68981300     -1.31549900
C        -5.57587900     -1.94766000     -1.37280500
O        -4.99921200     -1.55095800     -2.54229800
C        -5.57971700     -1.93770400     -3.76307300
C        -4.91229100     -1.59620400     -0.17486700
C        -3.63771900     -0.83493000     -0.16896400
C        -2.60188600     -1.19425900      0.71249500
C        -1.41393900     -0.46996800      0.77658100
C        -1.21744500      0.64114500     -0.05602900
N         0.00008500      1.36944500     -0.00693900
C        -0.00366400      2.77194900     -0.00921400
C         1.05699600      3.49414600     -0.59709200
C         1.05025700      4.88174600     -0.59300100
C        -0.01161000      5.59561300     -0.01372700
C         0.03099800      7.07485900     -0.04217800
O        -1.05050900      7.64965900      0.53540300
O         0.92377400      7.73701800     -0.52359700
C        -1.07076500      4.87954700      0.56813400
C        -1.06739300      3.49035200      0.57593600
C         1.22212800      0.64859000      0.04616600
C         2.23736600      1.01826100      0.94264800
C         3.42994500      0.30347100      0.99635300
C         3.65097100     -0.81212900      0.16695300
C         4.93022000     -1.56549300      0.17696000
C         5.59331800     -1.91066200      1.37695600
O         5.01152000     -1.51560500      2.54451300
C         5.59307400     -1.89471300      3.76714100
C         6.78721500     -2.64535600      1.32351800
C         7.33107300     -3.03851700      0.10298800
C         6.68863000     -2.70461400     -1.09467600
C         5.49620400     -1.97327400     -1.04410300
C         2.61919300     -1.17976300     -0.71586600
C         1.42696800     -0.46290900     -0.78380900
C        -2.23677500      1.00239800     -0.95143600
C        -3.42498700      0.28014600     -1.00131300
C        -5.47302600     -2.00558900      1.04811000
C        -6.66063300     -2.74443700      1.10251900
H        -7.28268500     -2.97235800     -2.23142000
H        -6.59955100     -1.52914500     -3.88514800
H        -4.93809100     -1.53189600     -4.55667400
H        -5.62590500     -3.03708000     -3.86680500
H        -2.72534400     -2.06822400      1.35547200
H        -0.62371000     -0.76960900      1.46683400
H         1.88162700      2.95285200     -1.06119400
H         1.86485500      5.44409700     -1.05283900
H        -0.91450100      8.60860500      0.46117200
H        -1.89531300      5.42413200      1.02936200
H        -1.88897500      2.94602900      1.04189200
H         2.08622000      1.87803000      1.59747900
H         4.20405000      0.60759400      1.69940700
H         4.94757100     -1.49111300      4.55873300
H         5.64684900     -2.99344100      3.87418000
H         6.60984100     -1.47864300      3.88935600
H         7.30478100     -2.92302900      2.24101300
H         4.98911000     -1.67995900     -1.96181500
H         2.74950800     -2.05414800     -1.35691000
H         0.64001600     -0.76853800     -1.47519700
H        -2.09190000      1.86130000     -1.60880700
H        -4.20204100      0.57770300     -1.70394200
H        -4.96567800     -1.70778400      1.96423300
H        -8.23104100     -3.65765300     -0.04605700
H         8.26230100     -3.60577200      0.05893500
O        -7.25620500     -3.15956100      2.25386100
O         7.28935300     -3.11781700     -2.24396800
C         6.68749400     -2.80096200     -3.47501400
H         6.61153000     -1.70881200     -3.62875900
H         7.32917100     -3.22574100     -4.25861700
H         5.67627900     -3.23890400     -3.56553700
C        -6.65233500     -2.83909600      3.48293100
H        -6.58185600     -1.74648800      3.63622400
H        -7.28926700     -3.26714400      4.26863100
H        -5.63845400     -3.27143800      3.57047900
