73
COc1ccc(-c2ccc(N(c3ccc(C(=O)O)cc3)c3ccc(-c4ccc(OC)c(OC)c4)cc3)cc2)cc1OC
C        -8.96931900     -4.14514100      1.70191100
O        -8.52737200     -3.52451200      0.51913400
C        -7.34851300     -2.86041200      0.53695400
C        -6.95415000     -2.26287100     -0.69163800
C        -5.75371700     -1.56036800     -0.76105600
C        -4.91049000     -1.42332200      0.36428300
C        -3.64282700     -0.66286900      0.26569900
C        -2.50743300     -1.03258500      1.01102600
C        -1.31861700     -0.31226600      0.93402100
C        -1.21559600      0.80240100      0.08751000
N         0.00120700      1.52661800     -0.00704200
C        -0.00187100      2.93007300     -0.01057500
C         0.96516100      3.65007900     -0.74383900
C         0.95939800      5.03785500     -0.74109200
C        -0.00973100      5.75262900     -0.01813300
C         0.02868500      7.23222000     -0.05466200
O        -0.96033500      7.80792800      0.66881000
O         0.84483300      7.89282100     -0.65836000
C        -0.97592500      5.03828300      0.70944500
C        -0.97178900      3.64894800      0.71852000
C         1.22119400      0.80704700     -0.09734400
C         2.33834400      1.18832900      0.66171100
C         3.53200200      0.47844500      0.56641100
C         3.65444200     -0.64903900     -0.26743300
C         4.92523200     -1.40474200     -0.36211500
C         5.77042300     -1.53021000      0.76308300
C         6.97374900     -2.22808000      0.69707000
C         7.36912900     -2.83258600     -0.52777500
O         8.55086800     -3.49143800     -0.50678900
C         8.99477000     -4.11715900     -1.68614800
C         6.53597100     -2.71079600     -1.64001200
C         5.32832700     -2.00528200     -1.55791700
C         2.52003200     -1.02869400     -1.00928400
C         1.32827900     -0.31289500     -0.93634200
C        -2.33378600      1.17364200     -0.67505200
C        -3.52444000      0.45931700     -0.57589100
C        -5.31251800     -2.01719400      1.56376900
C        -6.51726600     -2.72727100      1.64931400
H        -9.92997700     -4.62185900      1.46611800
H        -8.26022000     -4.91841100      2.04993400
H        -9.12177600     -3.41468200      2.51744600
H        -2.55273000     -1.91186900      1.65648300
H        -0.45237800     -0.61958200      1.52221400
H         1.71491400      3.10706700     -1.31977400
H         1.70031100      5.59943400     -1.31286300
H        -0.83654400      8.76685100      0.57510400
H        -1.72580300      5.58413900      1.28291800
H        -1.71843600      3.10495900      1.29755400
H         2.26914100      2.05660200      1.31901000
H         4.39408600      0.81666800      1.14472100
H         9.95809700     -4.58747600     -1.44838700
H         8.28932200     -4.89623700     -2.02861200
H         9.14264900     -3.39101600     -2.50634900
H         6.82543900     -3.15713000     -2.59090100
H         4.71464000     -1.90281600     -2.45431900
H         2.56861600     -1.91206900     -1.64887900
H         0.46306700     -0.62775000     -1.52204800
H        -2.26743600      2.03740100     -1.33857300
H        -4.38736500      0.78947400     -1.15764000
H        -4.70023800     -1.90608600      2.46011100
H        -6.80594100     -3.16840000      2.60287500
H         5.45535900     -1.09271500      1.70874800
H        -5.43920300     -1.12837900     -1.70944000
O         7.82640500     -2.39756500      1.73526600
O        -7.80471600     -2.44336700     -1.72966200
C         7.50562200     -1.81649900      2.97551600
H         8.32796000     -2.06389100      3.65982700
H         7.41657300     -0.71699400      2.90366400
H         6.56243300     -2.21930000      3.38791600
C        -7.48411100     -1.87100300     -2.97403500
H        -8.30445800     -2.12685600     -3.65761400
H        -7.39917500     -0.77064100     -2.91080700
H        -6.53880100     -2.27358600     -3.38172700
