46
Cc1ccc(N2c3ccccc3Oc3cc(/C=C(\C#N)P(=O)(O)O)ccc32)cc1
C        -0.06394100      1.04943500      0.00606900
C         1.29470200      0.80639300      0.01170700
C         1.79297000     -0.52079900      0.02078300
C         0.85527300     -1.57256400      0.02429600
C        -0.51387100     -1.32842900      0.01890700
C        -1.00472500     -0.01262400      0.00979700
N        -2.36124300      0.28185000      0.00443900
C        -2.78591500      1.62647100     -0.00462000
C        -1.81350900      2.64586300     -0.00819600
O        -0.47192000      2.35818600     -0.00331000
C        -4.13742900      1.98855000     -0.00981600
C        -4.51154100      3.33740200     -0.01855900
C        -3.54033900      4.33669100     -0.02204000
C        -2.18527200      3.98475300     -0.01674200
C        -3.32792900     -0.77185700      0.00524800
C        -3.80563500     -1.28451400      1.21314600
C        -4.75093500     -2.31264100      1.20773000
C        -5.23548700     -2.84537500      0.00448300
C        -4.74395000     -2.31605700     -1.20093100
C        -3.80049700     -1.29024400     -1.20543300
C         3.19450200     -0.87215100      0.02675600
C         4.31776600     -0.09194300      0.02625600
P         5.90150300     -0.95186800      0.00865500
O         5.78009300     -2.43266000     -0.03579300
O         6.77442800     -0.32877500     -1.22115400
O         6.65002500     -0.26646000      1.26569500
C        -6.25475600     -3.95552000     -0.00793400
C         4.34442100      1.33064500      0.01348200
N         4.40535300      2.49211100     -0.00210100
H         1.95762800      1.66974100      0.00917200
H         1.21261700     -2.60462000      0.03213600
H        -1.21886500     -2.15863700      0.02237400
H        -4.89780300      1.20804100     -0.00668400
H        -5.57197800      3.59760000     -0.02244400
H        -3.82661800      5.39011900     -0.02871500
H        -1.39468100      4.73694500     -0.01896500
H        -3.43218300     -0.87290800      2.15283200
H        -5.11885700     -2.70867800      2.15756200
H        -5.10738000     -2.71586000     -2.15144100
H        -3.42153900     -0.88133100     -2.14414700
H         3.40218100     -1.94724800      0.03307800
H         6.74803900     -0.92392400     -1.98508500
H         7.60847900     -0.41055700      1.25068800
H        -6.53569800     -4.25886600      1.01063400
H        -7.17216800     -3.64624600     -0.53517300
H        -5.86690500     -4.84453100     -0.53184100
