47
COc1ccc(N2c3ccccc3Oc3cc(/C=C(\C#N)P(=O)(O)O)ccc32)cc1
C         0.26469100      1.19357800     -0.00925100
C         1.60200700      0.85168800     -0.01157700
C         2.00181300     -0.50780900      0.03588000
C         0.98970200     -1.48697400      0.08470600
C        -0.35770100     -1.14331600      0.08756300
C        -0.75127400      0.20418200      0.04124600
N        -2.08286500      0.59590600      0.04315400
C        -2.40763100      1.96763900     -0.00049800
C        -1.36402500      2.91262100     -0.05124400
O        -0.04700100      2.52791500     -0.05782900
C        -3.72888000      2.42771300      0.00459400
C        -4.00430500      3.79941100     -0.04119000
C        -2.96330200      4.72441600     -0.09235800
C        -1.63762100      4.27430700     -0.09692000
C        -3.12273100     -0.38250700      0.10474700
C        -3.60592200     -0.82043200      1.34624500
C        -4.61578000     -1.77189000      1.40860100
C        -5.16354600     -2.30316300      0.22618100
C        -4.68232100     -1.86498200     -1.01804300
C        -3.66512200     -0.90760700     -1.06815200
C         3.37326600     -0.96217400      0.04004100
C         4.55161400     -0.26871900      0.00479400
P         6.06673400     -1.24424100      0.00386600
O         5.83641400     -2.71272200      0.00568400
O         6.97318100     -0.72552800     -1.24999500
O         6.87460400     -0.57904400      1.23483700
C         4.68366100      1.14675500     -0.05487600
N         4.83057000      2.29933100     -0.10936900
H         2.32626800      1.66337700     -0.05011700
H         1.27073600     -2.54171400      0.12281600
H        -1.12150400     -1.91868900      0.12690900
H        -4.54321000      1.70478700      0.04491300
H        -5.04293700      4.13627400     -0.03603000
H        -3.17206400      5.79532100     -0.12834600
H        -0.79449100      4.96609400     -0.13539700
H        -3.17876900     -0.40499100      2.26102100
H        -5.00539000     -2.12657600      2.36415000
H        -5.08856200     -2.25923400     -1.94865600
H        -3.28565600     -0.56174700     -2.03166800
H         3.50015600     -2.04912600      0.07932900
H         6.89815100     -1.34203900     -1.99347600
H         7.81940700     -0.79518800      1.21864300
O        -6.14109000     -3.22257200      0.38572700
C        -6.73908700     -3.79750900     -0.75567100
H        -7.49384600     -4.50540500     -0.38965600
H        -7.23475600     -3.03627100     -1.38399900
H        -6.00239200     -4.34367800     -1.37122400
