47
O=P(O)(O)CCn1c2ccc(-c3cccs3)cc2c2cc(-c3cccs3)ccc21
C         1.23260600      3.05061600     -0.12994400
C        -0.11757100      3.42596300     -0.34484500
C        -1.13031300      2.48739400     -0.52214900
C        -0.78105100      1.13293300     -0.49808700
C         0.56498400      0.72390400     -0.28429000
C         1.56114800      1.68504800     -0.10157500
N        -1.57822200      0.00684100     -0.65993100
C        -0.78763100     -1.12626900     -0.51506400
C         0.56026000     -0.72816700     -0.29212400
C        -1.14485900     -2.47820600     -0.55826700
C        -0.13864600     -3.42504800     -0.38766700
C         1.21634000     -3.06062300     -0.18418900
C         1.55318600     -1.69764300     -0.13773800
C        -3.01601300      0.01256700     -0.77305900
C        -3.70933300      0.01089900      0.59848400
P        -5.51016100      0.02161100      0.50717800
O        -5.76793800      1.31963700     -0.44787100
O        -5.78399800     -1.26748500     -0.45546100
O        -6.31075200      0.02262000      1.75863300
H        -0.36875900      4.48683700     -0.39092700
H        -2.16041700      2.80989200     -0.68428700
H         2.59165100      1.37446000      0.08464500
H        -2.17989200     -2.79221200     -0.70490100
H        -0.40490700     -4.48326100     -0.38918500
H         2.59320400     -1.39602200      0.00537400
H        -3.32486900      0.89749800     -1.34712600
H        -3.33130300     -0.86636300     -1.35277000
H        -3.42184000     -0.88086100      1.17729800
H        -3.41185100      0.89482500      1.18421900
H        -6.60062200      1.75569400     -0.21109500
H        -6.61894400     -1.69822000     -0.21692100
C         2.25496300      4.08506200      0.06803200
C         2.10044600      5.37801400      0.52846200
S         3.93710000      3.77509000     -0.29920500
C         3.32341000      6.10791600      0.59434100
H         1.13718000      5.78378200      0.83876400
C         4.40416000      5.36938200      0.18267800
H         3.39855900      7.13922500      0.94201200
H         5.44900200      5.67105800      0.13250900
C         2.23658100     -4.10429300     -0.02818000
C         2.21965800     -5.40631700     -0.48853300
S         3.71929400     -3.79578000      0.84762100
C         3.39101300     -6.14466400     -0.14860400
H         1.39924000     -5.81278300     -1.08059400
C         4.29472700     -5.40328600      0.57013800
H         3.55946700     -7.18398500     -0.43418400
H         5.26587100     -5.70986000      0.95503200
