62
O=C1c2ccccc2C2(c3ccccc31)c1ccccc1N(CCCCP(=O)(O)O)c1ccccc12
O        -8.40371300      1.28603000      0.00179800
P        -7.31923400      0.26822400      0.00059800
O        -7.35337400     -0.72887000      1.29231400
C        -5.60009600      0.81485500      0.00237000
C        -4.56409500     -0.31313200     -0.00024400
C        -3.12894600      0.20963100      0.00111200
C        -2.10302700     -0.92875800     -0.00105400
N        -0.71526800     -0.49195800     -0.00048800
C        -0.07873800     -0.21547700     -1.21957000
C         1.30184100      0.06878500     -1.26382200
C         2.17039700      0.04981100     -0.00014000
C         3.04585200      1.30345600      0.00205200
C         4.44776100      1.25707100      0.00223400
C         5.19601600      2.45026100      0.00433300
C         4.55861300      3.68277100      0.00620600
C         3.15600200      3.73270100      0.00600300
C         2.41371600      2.55648900      0.00395400
C         2.97642000     -1.25420900     -0.00269700
C         4.38040600     -1.28016100     -0.00241000
C         5.06611200     -2.50976600     -0.00471500
C         4.36747600     -3.70873600     -0.00735700
C         2.96475400     -3.68659600     -0.00776500
C         2.28182700     -2.47442500     -0.00547900
C         1.91611100      0.31364100     -2.49657700
C         1.20451200      0.28865100     -3.69314000
C        -0.16477300      0.01948800     -3.65119600
C        -0.79891800     -0.22321200     -2.43591600
C        -0.07821700     -0.22010300      1.21937300
C         1.30236400      0.06403800      1.26411200
C         1.91716400      0.30424900      2.49748400
C         1.20608700      0.27467200      3.69426200
C        -0.16318700      0.00555100      3.65191800
C        -0.79785100     -0.23256300      2.43599200
O        -7.35335500     -0.72431400     -1.29476900
H        -8.22302400     -0.69033600      1.71840100
H        -5.48475900      1.46407500     -0.88132100
H        -5.48503800      1.45969900      0.88928800
H        -4.73080800     -0.95606600      0.88008200
H        -4.73066800     -0.95188200     -0.88363700
H        -2.96079100      0.85414000     -0.87753100
H        -2.96116200      0.85053900      0.88245800
H        -2.26117700     -1.57827000      0.87164300
H        -2.26143100     -1.57513700     -0.87602900
H         6.28370400      2.36334100      0.00434200
H         5.14200400      4.60630200      0.00787000
H         2.64243200      4.69722200      0.00747600
H         1.32292100      2.59888200      0.00378900
H         6.15685800     -2.47829000     -0.00440200
H         4.90325100     -4.66064600     -0.00907500
H         2.40233100     -4.62351600     -0.00990600
H         1.19075700     -2.46955100     -0.00583900
H         2.98773100      0.52244800     -2.50928600
H         1.71017400      0.47894700     -4.64157100
H        -0.75434600      0.00371400     -4.57090100
H        -1.87036700     -0.40980500     -2.44122600
H         2.98877700      0.51306900      2.51053400
H         1.71218300      0.46140900      4.64317100
H        -0.75232800     -0.01380100      4.57182700
H        -1.86928000     -0.41927300      2.44104200
H        -8.22070800     -0.67825600     -1.72476500
C         5.18966500     -0.03263400      0.00026400
O         6.41127600     -0.06368300      0.00071700
