60
O=P(O)(O)CCCCN1c2ccccc2C2(c3ccccc3-c3ccccc32)c2ccccc21
O        -8.23715500     -0.00005600     -1.17258800
P        -7.11420100     -0.00001200     -0.19708500
O        -7.11192900      1.29355300      0.79851800
O        -7.11191100     -1.29348900      0.79863000
C        -5.41729800     -0.00003600     -0.80846800
C        -4.33887500      0.00001000      0.27916300
C        -2.92483200     -0.00000900     -0.29831900
C        -1.85775000      0.00004200      0.80344800
N        -0.48332400      0.00002600      0.32792800
C         0.12949500     -1.21713700     -0.01018600
C        -0.60227100     -2.42337300     -0.04258500
C         0.01280100     -3.62767000     -0.37914200
C         1.36912100     -3.66160900     -0.70381700
C         2.09818000     -2.47329100     -0.67241900
C         1.50602800     -1.25517400     -0.32477500
C         1.50604700      1.25517700     -0.32480900
C         2.09822000      2.47327600     -0.67248200
C         1.36918100      3.66160600     -0.70390400
C         0.01286200      3.62769800     -0.37922100
C        -0.60223000      2.42341900     -0.04263600
C         0.12951300      1.21717000     -0.01022000
C         2.35777300     -0.00000300     -0.15806900
C         3.58103000     -0.00002500     -1.07277200
C         4.77318400     -0.00002100     -0.32205000
C         4.42788700      0.00000100      1.10723700
C         3.02398500      0.00001100      1.22997700
C         5.23589500      0.00001200      2.24769100
C         4.62552300      0.00003300      3.50634500
C         3.22910700      0.00004300      3.62292300
C         2.41760300      0.00003200      2.48059500
C         3.61548900     -0.00004600     -2.46239500
C         4.85829800     -0.00006300     -3.10871600
C         6.04674000     -0.00005900     -2.36545800
C         6.01387300     -0.00003800     -0.96736500
H        -7.98121400      1.72186800      0.78626100
H        -7.98121500     -1.72176900      0.78648200
H        -5.32674600     -0.88530500     -1.45947400
H        -5.32675000      0.88518300     -1.45954400
H        -4.48103300      0.88189500      0.92589300
H        -4.48102800     -0.88182300      0.92596400
H        -2.78257700     -0.87914200     -0.94756400
H        -2.78258500      0.87906900     -0.94764100
H        -1.99461200      0.87551500      1.45508100
H        -1.99460700     -0.87538300      1.45514500
H        -1.66626300     -2.43100400      0.18334200
H        -0.58343100     -4.54317500     -0.39504700
H         3.16386700     -2.48621000     -0.90590500
H         3.16390700      2.48617200     -0.90596900
H        -0.58335300      4.54321400     -0.39514000
H        -1.66622000      2.43107400      0.18330200
H         6.32510500      0.00000500      2.16061200
H         5.24314600      0.00004200      4.40767600
H         2.76920600      0.00005900      4.61406400
H         1.32924200      0.00003900      2.56961000
H         2.68671200     -0.00004900     -3.03737500
H         4.90251100     -0.00007900     -4.20037700
H         7.00841400     -0.00007200     -2.88422600
H         6.94247900     -0.00003500     -0.39171300
H         1.85686700     -4.60074300     -0.97225300
H         1.85694300      4.60072600     -0.97236000
