91
Cc1ccc(N(c2ccc(C)cc2)c2ccc3c(c2)c2cc(N(c4ccc(C)cc4)c4ccc(C)cc4)ccc2n3-c2ccc(C(=O)O)cc2)cc1
C         2.82504100     -5.87427600     -3.71557200
C         3.15018400     -4.65958900     -2.88412500
C         3.81779400     -4.76551600     -1.65628200
C         4.09342900     -3.64323400     -0.87432600
C         3.72292900     -2.36277100     -1.31275900
N         3.99938200     -1.21604700     -0.53138000
C         5.21717800     -1.10988000      0.17910900
C         5.25086500     -0.57423200      1.47593500
C         6.46059300     -0.45573900      2.16154500
C         7.67024300     -0.88019700      1.59589800
C         8.97690700     -0.76429400      2.33878100
C         7.62334800     -1.42307900      0.30081600
C         6.42707900     -1.52997800     -0.40270500
C         3.01674900     -0.20251300     -0.40281100
C         3.39549400      1.15872000     -0.46140000
C         2.46276400      2.18521500     -0.33707000
C         1.11557100      1.84005100     -0.18311800
C         0.71764300      0.47860500     -0.11672200
C         1.67082200     -0.53898100     -0.21596800
C        -0.71683900      0.46942300      0.09915100
C        -1.65631300     -0.56030200      0.20336100
C        -3.00642500     -0.24105700      0.39033800
N        -3.97512900     -1.26727900      0.52494600
C        -3.68513800     -2.40296100      1.31732600
C        -4.04511800     -3.69145700      0.89373000
C        -3.75578100     -4.80282700      1.68618200
C        -3.08447700     -4.67794600      2.91025400
C        -2.74440800     -5.88088500      3.75273500
C        -2.72239900     -3.38416900      3.32052900
C        -3.02151600     -2.26443900      2.54929800
C        -5.19651700     -1.17889400     -0.18176500
C        -6.40003600     -1.60651300      0.40596000
C        -7.60023400     -1.51381500     -0.29454900
C        -7.65630400     -0.97944200     -1.59188800
C        -8.95907400     -0.90303900     -2.34664300
C        -6.45195400     -0.54453600     -2.16316100
C        -5.23969900     -0.64887600     -1.48145000
C        -3.40331700      1.11515000      0.44366300
C        -2.48444900      2.15346400      0.31397700
C        -1.13288800      1.82576500      0.16030900
N        -0.01419700      2.65385200     -0.01316400
C        -0.02363200      4.06130700     -0.01575200
C        -0.68780500      4.76599800      1.00225200
C        -0.70359200      6.15771300      0.99469200
C        -0.04469400      6.86791200     -0.02054000
C        -0.02690300      8.35331100     -0.06879500
O         0.53390300      9.00929200     -0.91611000
O        -0.71264900      8.92261300      0.94627100
C         0.62425900      6.16231100     -1.03218100
C         0.63102200      4.77207700     -1.03680100
C         3.06271800     -2.24319400     -2.54853700
C         2.77735700     -3.37362200     -3.30923700
H         3.33839800     -6.77070000     -3.33759100
H         1.74158500     -6.08502200     -3.71119600
H         3.11995300     -5.73313600     -4.76817800
H         4.11911900     -5.75195800     -1.29283500
H         4.60346300     -3.75521100      0.08363700
H         4.32192500     -0.24704100      1.94534300
H         6.45928600     -0.03347600      3.17035200
H         8.83812000     -0.30435800      3.32823200
H         9.44264500     -1.75266300      2.49048900
H         9.70386400     -0.14991100      1.78136000
H         8.55010400     -1.75716400     -0.17490700
H         6.41965600     -1.94297300     -1.41265700
H         4.44940900      1.40364200     -0.60008500
H         2.78514700      3.22612600     -0.36707300
H         1.37650000     -1.58729800     -0.14980900
H        -1.34810900     -1.60490600      0.14162700
H        -4.55769300     -3.81833000     -0.06099300
H        -4.04905600     -5.79579000      1.33408100
H        -3.25299900     -6.78539400      3.38778500
H        -1.65936300     -6.08318600      3.74365800
H        -3.03375000     -5.73061600      4.80561400
H        -2.20530700     -3.24867500      4.27494700
H        -2.73963400     -1.26853500      2.89483900
H        -6.38644800     -2.01148800      1.41907700
H        -8.52267100     -1.85135100      0.18685900
H        -9.79657900     -0.64171300     -1.68074100
H        -8.91644700     -0.15289300     -3.15049600
H        -9.20867300     -1.87176400     -2.81446800
H        -6.45776600     -0.12387700     -3.17268400
H        -4.31571100     -0.31220500     -1.95394700
H        -4.46030400      1.34644200      0.58237500
H        -2.82057200      3.19014000      0.33954600
H        -1.17262800      4.21334000      1.80760300
H        -1.21456700      6.70475100      1.78734300
H        -0.63697300      9.88332700      0.82163000
H         1.12273000      6.72894700     -1.82041700
H         1.12431800      4.22395500     -1.84011800
H         2.77288400     -1.25355000     -2.90537500
H         2.26285200     -3.25301800     -4.26704100
