101
Cc1ccc(N(c2ccc(C)cc2)c2ccc3c(c2)c2cc(N(c4ccc(C)cc4)c4ccc(C)cc4)ccc2n3-c2ccc(-c3ccc(C(=O)O)cc3)cc2)cc1
C        -7.07831800      2.78455500      3.80410900
C        -5.87949000      3.11816100      2.95319300
C        -6.00927700      3.78949200      1.72969600
C        -4.90193600      4.07278700      0.92942000
C        -3.61222000      3.70652400      1.34416000
N        -2.48052400      3.98877800      0.54382700
C        -2.39184800      5.20447700     -0.17179700
C        -1.86749400      5.23804600     -1.47340100
C        -1.76522300      6.44606800     -2.16458500
C        -2.19467600      7.65440300     -1.59993600
C        -2.09471800      8.95943300     -2.34803300
C        -2.72572300      7.60780500     -0.29996000
C        -2.81658800      6.41345000      0.40899300
C        -1.46133500      3.01222400      0.40355600
C        -0.10222300      3.39969500      0.45666100
C         0.92922700      2.47402900      0.32205900
C         0.59075300      1.12565000      0.16267200
C        -0.76897400      0.71813000      0.10417000
C        -1.79141900      1.66551800      0.21305600
C        -0.76782900     -0.71617500     -0.11127500
C        -1.78851100     -1.66613100     -0.21403500
C        -1.45612300     -3.01210300     -0.40566400
N        -2.47389500     -3.99121400     -0.53867200
C        -3.60821900     -3.71454600     -1.33727100
C        -4.89578700     -4.08425500     -0.91891300
C        -6.00582300     -3.80632900     -1.71728300
C        -5.88097200     -3.13715200     -2.94251100
C        -7.08276400     -2.80939100     -3.79151400
C        -4.58835900     -2.76520800     -3.34757200
C        -3.46978100     -3.05271100     -2.57031000
C        -2.37734000     -5.20653100      0.17638700
C        -2.80036700     -6.41696000     -0.40077800
C        -2.69860900     -7.61149500      0.30809200
C        -2.15938700     -7.65539100      1.60384900
C        -2.07386500     -8.95198900      2.36822200
C        -1.72876000     -6.44451500      2.16446500
C        -1.84190500     -5.23782600      1.47440400
C        -0.09642500     -3.39620700     -0.46680400
C         0.93350500     -2.46794500     -0.33836300
C         0.59258400     -1.12041300     -0.17722300
N         1.41066800      0.00363100     -0.00953300
C         2.82170100      0.00505600     -0.01191100
C         3.53166300     -0.60877600     -1.05431200
C         4.92407700     -0.61209200     -1.04820500
C         5.65247700      0.00707700     -0.01608100
C         7.13425300      0.00761600     -0.01839800
C         7.86007500     -0.06877600      1.18559000
C         9.25221700     -0.06855300      1.18759100
C         9.95823200      0.00746200     -0.02214400
C        11.44414300      0.01064900     -0.07845000
O        12.09590500      0.07250100     -1.09535300
O        12.01927800     -0.06357800      1.14153000
C         9.24714000      0.08373600     -1.22864100
C         7.85664400      0.08410500     -1.22539800
C         4.92622500      0.62552400      1.01798600
C         3.53385400      0.62016900      1.02826700
C        -3.46885100      3.04256800      2.57552000
C        -4.58471500      2.74967300      3.35462000
H        -7.98314800      3.29596500      3.44389000
H        -7.28500500      1.70030500      3.79869400
H        -6.92025300      3.07553600      4.85542500
H        -7.00314000      4.08753100      1.38414300
H        -5.03303400      4.58522800     -0.02479200
H        -1.53656400      4.31012700     -1.94216200
H        -1.35193100      6.44426700     -3.17712300
H        -1.65970500      8.81783100     -3.34832400
H        -3.08542800      9.42718200     -2.47579800
H        -1.46481600      9.68617800     -1.80768900
H        -3.06344100      8.53353700      0.17524600
H        -3.22073600      6.40688600      1.42250300
H         0.13593100      4.45470500      0.59929900
H         1.96932800      2.80003000      0.34938700
H        -2.83868500      1.36577900      0.15394800
H        -2.83621200     -1.36912000     -0.14896600
H        -5.02302900     -4.59527000      0.03658700
H        -6.99792400     -4.10696100     -1.36892300
H        -7.98519800     -3.32266400     -3.42795000
H        -7.29274800     -1.72576900     -3.78837600
H        -6.92618400     -3.10254400     -4.84244700
H        -4.45274100     -2.24922200     -4.30258900
H        -2.47473600     -2.76275800     -2.91158000
H        -3.20873200     -6.41335700     -1.41259200
H        -3.03276200     -8.53917800     -0.16556300
H        -1.82040400     -9.79489600      1.70613900
H        -1.31420500     -8.90289400      3.16279300
H        -3.03683400     -9.19784100      2.84981300
H        -1.30424200     -6.44066200      3.17241800
H        -1.50798300     -4.30881000      1.93884100
H         0.14350900     -4.45064600     -0.61071600
H         1.97422400     -2.79136500     -0.37176500
H         2.98394600     -1.07823500     -1.87255700
H         5.45660800     -1.11574400     -1.85709300
H         7.32409200     -0.15595800      2.13250600
H         9.80195500     -0.13689300      2.12668600
H        12.97929000     -0.05518400      0.99134400
H         9.80921400      0.15160200     -2.16157100
H         7.31811900      0.17119700     -2.17085700
H         5.46045700      1.13030200      1.82507300
H         2.98781800      1.08904100      1.84797400
H        -2.47206000      2.75522300      2.91390400
H        -4.44528300      2.23210300      4.30823200
