65
O=C(O)c1ccc(-c2ccc(-n3c4ccc(-c5ccccc5)cc4c4cc(-c5ccccc5)ccc43)cc2)cc1
C         6.11721800      0.01332300      1.22715900
C         5.39702300      0.00026300      0.01675700
C         6.12348400     -0.01250300     -1.18893600
C         7.51575100     -0.01226800     -1.18921800
C         8.22000200      0.00059700      0.02379300
C         7.50781200      0.01325400      1.23191300
C         9.70618400      0.00118500      0.08217600
C         3.91500700      0.00026200      0.01278000
C         3.18636400      0.71155800      0.98335100
C         1.79370000      0.70786600      0.98842500
C         1.08685400      0.00034100      0.00604400
C         1.79831600     -0.70724300     -0.97296900
C         3.19094900     -0.71106800     -0.96117900
N        -0.32653800      0.00020000      0.00282800
C        -1.14309100     -1.13468200     -0.02277700
C        -2.50363300     -0.72563500     -0.01775800
C        -3.51909300     -1.68588500     -0.01897100
C        -3.19579000     -3.05087200     -0.01970800
C        -1.83047600     -3.42582200     -0.01115200
C        -0.79869700     -2.48981600     -0.00990500
C        -1.14344400      1.13487700      0.02568800
C        -0.79931800      2.49009200      0.01419900
C        -1.83131100      3.42586500      0.01207300
C        -3.19655500      3.05058400      0.01600400
C        -3.51954400      1.68552400      0.01393000
C        -2.50386400      0.72550900      0.01596200
H         5.58820700      0.00390700     -2.14017400
H         8.06672400     -0.01311400     -2.13006600
H         3.71861600      1.28797700      1.74222100
H         1.24397100      1.25144900      1.75821000
H         1.25215500     -1.25102300     -1.74515700
H         3.72681700     -1.28791700     -1.71719300
H        -4.56432500     -1.37192500      0.01114300
H        -1.57485400     -4.48692500     -0.02820300
H         0.24311100     -2.81159200     -0.00188500
H         0.24244400      2.81209900      0.01003300
H        -1.57600700      4.48702600      0.03031300
H        -4.56460400      1.37133500     -0.01961600
H         8.06898100      0.01427200      2.16784400
H         5.57719100     -0.00305100      2.17568700
O        10.35601800      0.01198800      1.10199200
O        10.28263800     -0.01175400     -1.13911300
H        11.24258200     -0.00957500     -0.98809400
C        -4.26284100      4.08292200      0.01620500
C        -4.10999400      5.28554500     -0.69821600
C        -5.45975100      3.88675100      0.72970500
C        -5.11418900      6.25466200     -0.69887500
H        -3.20188300      5.45146800     -1.28162400
C        -6.46600100      4.85366100      0.72685800
H        -5.59132300      2.97410700      1.31487300
C        -6.29824100      6.04361100      0.01311400
H        -4.97463300      7.17713900     -1.26802700
H        -7.38338500      4.68078800      1.29508600
H        -7.08493600      6.80171500      0.01208900
C        -4.26183800     -4.08345300     -0.02296700
C        -5.45677900     -3.88755600     -0.73984600
C        -4.11080800     -5.28597000      0.69201500
C        -6.46290200     -4.85459600     -0.73967100
H        -5.58687200     -2.97497800     -1.32545000
C        -5.11486800     -6.25523100      0.68999200
H        -3.20435700     -5.45167500      1.27805500
C        -6.29696700     -6.04443200     -0.02530000
H        -7.37875100     -4.68191100     -1.31042800
H        -4.97677500     -7.17758600      1.25969500
H        -7.08358500     -6.80261600     -0.02631100
