59
O=C(O)c1ccc(-c2ccc(-n3c4ccc(-c5cccs5)cc4c4cc(-c5cccs5)ccc43)cc2)cc1
C        -6.20469800     -0.01694700      1.22704900
C        -5.48436900      0.00029000      0.01682600
C        -6.21037600      0.01706400     -1.18904400
C        -7.60266400      0.01656300     -1.18964700
C        -8.30712900     -0.00042000      0.02316700
C        -7.59531100     -0.01697900      1.23144200
C        -9.79342400     -0.00147300      0.08121800
C        -4.00233600      0.00037700      0.01320000
C        -3.27400700     -0.71645000      0.97992500
C        -1.88133400     -0.71299900      0.98524800
C        -1.17464800      0.00019800      0.00696700
C        -1.88553800      0.71357200     -0.96815000
C        -3.27817900      0.71725200     -0.95660800
N         0.23907200      0.00013600      0.00387100
C         1.05555200      1.13459200     -0.01341200
C         2.41609800      0.72560900     -0.00741100
C         3.43202300      1.68404100     -0.01032400
C         3.10755700      3.04989500     -0.00344500
C         1.74082300      3.42671400      0.01440800
C         0.71129900      2.49035000      0.00659300
C         1.05549700     -1.13439600      0.01806600
C         0.71101800     -2.49012200     -0.00027000
C         1.74040600     -3.42659800     -0.01186100
C         3.10723200     -3.04990900      0.00059500
C         3.43188400     -1.68409400      0.00586600
C         2.41605300     -0.72555500      0.00668800
H        -5.67483000      0.00392300     -2.14019100
H        -8.15343800      0.02041200     -2.13060000
H        -3.80655200     -1.29691800      1.73548400
H        -1.33170000     -1.26080000      1.75212000
H        -1.33915000      1.26152200     -1.73723800
H        -3.81401600      1.29817800     -1.70950400
H         4.47770600      1.36908900     -0.03021100
H         1.48677200      4.48695500      0.05966700
H        -0.33035900      2.81147800      0.03556600
H        -0.33078600     -2.81114400     -0.02484300
H         1.48610400     -4.48684200     -0.05567600
H         4.47767500     -1.36927400      0.02177000
H        -8.15674500     -0.02115800      2.16720200
H        -5.66486700     -0.00372000      2.17574700
O       -10.44330900     -0.01570700      1.10091600
O       -10.36949100      0.01544600     -1.14012600
H       -11.32951400      0.01259000     -0.98956200
C         4.15019700      4.08265300     -0.01109400
C         4.07152800      5.38817400     -0.45484000
S         5.75201300      3.75459800      0.61094600
C         5.28961500      6.11369000     -0.30483800
H         3.16983200      5.80642900     -0.90295800
C         6.29033800      5.35900900      0.25364800
H         5.41983800      7.15371100     -0.60729100
H         7.31379400      5.65441900      0.47842300
C         4.14976900     -4.08279100      0.00474600
C         4.07284600     -5.38781800      0.45022700
S         5.74896400     -3.75554800     -0.62442100
C         5.29023300     -6.11360500      0.29587700
H         3.17304500     -5.80543500      0.90272800
C         6.28865400     -5.35962700     -0.26765500
H         5.42166300     -7.15328100      0.59898900
H         7.31114400     -5.65536400     -0.49636500
