79
O=C(O)c1ccc(-c2ccc(-n3c4ccc(-c5ccc(-c6cccs6)cc5)cc4c4cc(-c5ccc(-c6cccs6)cc5)ccc43)cc2)cc1
C        -8.14305100     -0.01506800      1.22595900
C        -7.42257700     -0.00091200      0.01576800
C        -8.14856000      0.01290200     -1.19016800
C        -9.54084300      0.01256600     -1.19087300
C       -10.24541600     -0.00134700      0.02192000
C        -9.53365900     -0.01499800      1.23026700
C       -11.73169600     -0.00203800      0.07987700
C        -5.94053300     -0.00086000      0.01227400
C        -5.21227600     -0.71402600      0.98176300
C        -3.81959600     -0.71030500      0.98732600
C        -3.11270000     -0.00078700      0.00653300
C        -3.82359500      0.70870000     -0.97140000
C        -5.21625200      0.71240500     -0.96010200
N        -1.69901700     -0.00053800      0.00383100
C        -0.88279800      1.13435600     -0.01532200
C         0.47795200      0.72560500     -0.01198000
C         1.49313200      1.68562600     -0.00748400
C         1.16990500      3.05122800     -0.00112400
C        -0.19614000      3.42549700      0.00881400
C        -1.22747200      2.48941100      0.00463200
C        -0.88229400     -1.13508800      0.02099900
C        -1.22648300     -2.49028500      0.00220900
C        -0.19479400     -3.42596800     -0.00433600
C         1.17111900     -3.05114200      0.00217000
C         1.49382300     -1.68541200      0.00735900
C         0.47827800     -0.72579200      0.01413800
H        -7.61298400     -0.00262900     -2.14125700
H       -10.09154300      0.01418700     -2.13187600
H        -5.74482600     -1.29188800      1.73931400
H        -3.27005200     -1.25537700      1.75621700
H        -3.27713100      1.25402600     -1.74230900
H        -5.75194200      1.29064200     -1.71517000
H         2.53803100      1.37079500      0.02269100
H        -0.45293000      4.48631700     -0.00370400
H        -2.26937700      2.81081700      0.01359600
H        -2.26828600     -2.81209600     -0.00381200
H        -0.45111800     -4.48688900      0.00924200
H         2.53852600     -1.37017900     -0.02532700
H       -10.09514500     -0.01682700      2.16600500
H        -7.60331900      0.00046900      2.17467300
O       -12.38167600     -0.01361700      1.09955500
O       -12.30770700      0.01177800     -1.14154700
H       -13.26773200      0.00945500     -0.99099400
C         2.23561100     -4.08184400     -0.00253400
C         2.07692500     -5.29721600     -0.69491800
C         3.44893700     -3.88210100      0.68124800
C         3.07922000     -6.26169100     -0.70679400
H         1.16390800     -5.47464100     -1.26685900
C         4.45062400     -4.84787700      0.67699900
H         3.59736400     -2.96592900      1.25633300
C         4.29068600     -6.06229300     -0.01682400
H         2.93349100     -7.17538400     -1.28587000
H         5.36626500     -4.66860600      1.24546600
C         2.23400000      4.08234900      0.00162500
C         3.44601200      3.88329100     -0.68468100
C         2.07630400      5.29739700      0.69481300
C         4.44740100      4.84938500     -0.68203200
H         3.59361600      2.96737300     -1.26038600
C         3.07831000      6.26218700      0.70507700
H         1.16442700      5.47427000      1.26873400
C         4.28846900      6.06345700      0.01262200
H         5.36199000      4.67062100     -1.25235200
H         2.93345300      7.17555900      1.28487400
C         5.33224400      7.09219500      0.01955400
C         5.21121500      8.44371900      0.28059100
S         7.00112100      6.69265900     -0.32095700
C         6.44576200      9.15030100      0.20062800
H         4.25511600      8.92006000      0.49874800
C         7.50253700      8.33454700     -0.11917500
H         6.54502400     10.22373600      0.36742400
H         8.54952900      8.60497700     -0.24560600
C         5.33474100     -7.09073500     -0.02532500
C         5.21355400     -8.44245800     -0.28525900
S         7.00419900     -6.69051500      0.31150400
C         6.44846300     -9.14864300     -0.20738300
H         4.25713100     -8.91921300     -0.50108700
C         7.50566200     -8.33238600      0.10972700
H         6.54768000    -10.22216400     -0.37364700
H         8.55298000     -8.60245200      0.23423200
