73
O=C(O)c1ccc(-c2ccc(-n3c4ccc(-c5ccc(CO)cc5)cc4c4cc(-c5ccc(CO)cc5)ccc43)cc2)cc1
C         6.97503600      0.04261800      1.22581200
C         6.25435000      0.00109200      0.01628600
C         6.98060900     -0.04002200     -1.18895700
C         8.37284300     -0.03973700     -1.18966100
C         9.07756600      0.00148200      0.02250700
C         8.36561100      0.04250300      1.23019600
C        10.56355200      0.00328700      0.08030200
C         4.77244800      0.00096600      0.01270900
C         4.04387800      0.73644200      0.96513700
C         2.65126200      0.73303100      0.97050500
C         1.94357000      0.00081200      0.00667000
C         2.65543900     -0.73132000     -0.95416200
C         4.04802400     -0.73464300     -0.94275900
N         0.53097000      0.00054100      0.00379700
C        -0.28606400     -1.13501800     -0.00086300
C        -1.64639400     -0.72575600     -0.00253700
C        -2.66237600     -1.68531200      0.01641700
C        -2.34041600     -3.05058800      0.04052300
C        -0.97499800     -3.42523200      0.05426000
C         0.05740400     -2.48982200      0.03750700
C        -0.28653700      1.13574700      0.00625200
C         0.05652100      2.49069000     -0.03089400
C        -0.97619100      3.42570300     -0.05048700
C        -2.34149000      3.05050000     -0.04067300
C        -2.66299900      1.68509800     -0.01775900
C        -1.64670000      0.72593500      0.00391300
H         6.44490100     -0.04612700     -2.14007500
H         8.92351800     -0.06264100     -2.13041400
H         4.57623500      1.33166200      1.70933300
H         2.10195700      1.29569700      1.72670200
H         2.10936000     -1.29423400     -1.71251200
H         4.58365200     -1.33018800     -1.68436400
H        -3.70732300     -1.37024200      0.04273000
H        -0.71953000     -4.48653200      0.05645000
H         1.09892900     -2.81236700      0.05141300
H         1.09796900      2.81362100     -0.04151100
H        -0.72116900      4.48711500     -0.05164800
H        -3.70775400      1.36964400     -0.04698000
H         8.92699700      0.06549600      2.16572200
H         6.43511300      0.04876800      2.17452100
O        11.21419400      0.03719100      1.09919500
O        11.13980100     -0.03733700     -1.14066100
H        12.09969600     -0.03175700     -0.98956300
C        -3.40800100      4.08170100     -0.06015900
C        -3.25379600      5.27710000     -0.78795300
C        -4.61059100      3.89949700      0.64330700
C        -4.25816200      6.24146800     -0.80740900
H        -2.34390700      5.43956200     -1.36955200
C        -5.61843900      4.86507000      0.62338100
H        -4.75130800      2.99471800      1.23874600
C        -5.45397700      6.04944500     -0.10128900
H        -4.11360300      7.15544100     -1.39193300
H        -6.54402500      4.71299500      1.17869600
C        -3.40659900     -4.08217500      0.05750400
C        -4.60758400     -3.90048000     -0.64879400
C        -3.25367600     -5.27748300      0.78575800
C        -5.61526400     -4.86630200     -0.63094800
H        -4.74719300     -2.99588100     -1.24477000
C        -4.25770600     -6.24221600      0.80289000
H        -2.34504300     -5.43966600      1.36938700
C        -5.45209400     -6.05050800      0.09424100
H        -6.53955400     -4.71462600     -1.18851500
H        -4.11404500     -7.15623600      1.38756700
C        -6.52567600      7.11301000     -0.12480000
H        -6.11526000      8.03803500      0.33282500
H        -6.75282500      7.36335200     -1.18233500
C        -6.52421500     -7.11367600      0.11705300
H        -6.76189300     -7.35388700      1.17463900
H        -6.10951500     -8.04308200     -0.32762900
O        -7.67298800      6.66600600      0.55985500
H        -8.32300400      7.37778400      0.56217000
O        -7.66464100     -6.67288400     -0.58291500
H        -8.31810700     -7.38147300     -0.57762800
