45
O=C(O)c1ccc(-c2ccc(-n3c4ccccc4c4ccccc43)cc2)cc1
C         3.85487000      0.08471800      1.22552800
C         3.13542500      0.00111900      0.01754300
C         3.86241300     -0.08167900     -1.18501600
C         5.25468100     -0.08114100     -1.18462800
C         5.95826500      0.00201700      0.02601000
C         5.24549900      0.08477100      1.23104800
C         7.44433200      0.00591000      0.08486000
C         1.65345300      0.00067000      0.01268600
C         0.92413000      0.77100700      0.93647800
C        -0.46859900      0.76754300      0.94053800
C        -1.17516000      0.00021000      0.00387800
C        -0.46252700     -0.76698300     -0.92830900
C         0.93013700     -0.77005900     -0.91548300
N        -2.58853800     -0.00007700     -0.00060100
C        -3.40440900     -1.13505800      0.05698000
C        -4.76554500     -0.72463700      0.03234800
C        -5.78000800     -1.68862700      0.09702300
C        -5.43142500     -3.03535600      0.19003600
C        -4.07953100     -3.42378200      0.22807800
C        -3.04961300     -2.48400200      0.16533700
C        -3.40450900      1.13456800     -0.06281700
C        -3.04962800      2.48367100     -0.16890500
C        -4.07953200      3.42305400     -0.23751400
C        -5.43147000      3.03409400     -0.20740400
C        -5.78005100      1.68721500     -0.11657100
C        -4.76560200      0.72361500     -0.04612300
H         3.32720300     -0.12105400     -2.13562800
H         5.80622700     -0.13654300     -2.12350500
H         1.45590200      1.39347700      1.65851500
H        -1.01883000      1.35865200      1.67410300
H        -1.00806000     -1.35844400     -1.66509600
H         1.46662400     -1.39273300     -1.63385900
H        -6.82962100     -1.38597800      0.07893800
H        -3.82715200     -4.48352100      0.31203800
H        -2.00494400     -2.79390300      0.20711500
H        -2.00485200      2.79401800     -0.20424900
H        -3.82708700      4.48292100     -0.31966200
H        -6.82963000      1.38414900     -0.10451100
H         5.80618600      0.14031300      2.16560800
H         3.31392900      0.12404200      2.17286800
H        -6.21247900      3.79558900     -0.26130200
H        -6.21243100     -3.79714700      0.23962100
O         8.09410600      0.07470900      1.10251400
O         8.02139400     -0.07654800     -1.13353900
H         8.98121300     -0.06573600     -0.98219200
