61
O=P(O)(O)CCCCN1c2ccccc2C2(c3ccccc3Sc3ccccc32)c2ccccc21
O        -8.38027700      1.29976000      0.00019600
P        -7.30490800      0.27214200      0.00049400
O        -7.34883800     -0.72237100      1.29401800
C        -5.58091600      0.80263300      0.00085500
C        -4.55506700     -0.33465300      0.00038500
C        -3.11535400      0.17527000      0.00034400
C        -2.09862200     -0.97102800     -0.00006500
N        -0.70900300     -0.54201000     -0.00017800
C        -0.06709100     -0.28370000     -1.22099200
C         1.31381200     -0.00268800     -1.26415500
C         2.18046900      0.02619800     -0.00041400
C         2.95683600      1.35372700     -0.00022700
C         4.35072800      1.48498900      0.00070400
C         4.94715100      2.76292900      0.00097900
C         4.16527100      3.91012300      0.00038800
C         2.76922200      3.79503600     -0.00050100
C         2.18936600      2.53228500     -0.00080200
C         3.03916000     -1.25180300     -0.00069700
C         4.43978500     -1.28997300      0.00026200
C         5.12033600     -2.52428100      0.00012600
C         4.41792300     -3.72213400     -0.00092000
C         3.01794500     -3.70069600     -0.00187300
C         2.35307800     -2.47995800     -0.00176400
C         1.93538000      0.21657100     -2.49788800
C         1.22988800      0.17264200     -3.69739100
C        -0.14128700     -0.08813900     -3.65665700
C        -0.78224200     -0.30769800     -2.44037900
C        -0.06679100     -0.28419400      1.22058200
C         1.31411200     -0.00315200      1.26353100
C         1.93595700      0.21567400      2.49720400
C         1.23073100      0.17126300      3.69684900
C        -0.14044200     -0.08956300      3.65633000
C        -0.78166400     -0.30868500      2.44011200
O        -7.34943200     -0.72235600     -1.29315100
H        -8.21802500     -0.67381500      1.71996900
H        -5.45974100      1.44895500     -0.88418800
H        -5.45974100      1.44826500      0.88639700
H        -4.72729300     -0.97422700      0.88209700
H        -4.72752900     -0.97370100     -0.88166600
H        -2.94148700      0.81635900     -0.87984900
H        -2.94127800      0.81591300      0.88082000
H        -2.26187100     -1.61816400      0.87335500
H        -2.26213900     -1.61780600     -0.87370200
H         6.03736900      2.84020200      0.00166600
H         4.64207600      4.89300400      0.00061600
H         2.13906400      4.68684500     -0.00095600
H         1.10167000      2.43888500     -0.00148800
H         6.21335100     -2.52800200      0.00084400
H         4.95998100     -4.67055700     -0.00100800
H         2.44882700     -4.63268400     -0.00270100
H         1.26194900     -2.46747200     -0.00249100
H         3.00797800      0.42201400     -2.50562700
H         1.74032300      0.34369400     -4.64700600
H        -0.72710200     -0.11613300     -4.57854000
H        -1.85467100     -0.48903900     -2.44804900
H         3.00855000      0.42114300      2.50479800
H         1.74137500      0.34198000      4.64641200
H        -0.72604700     -0.11793000      4.57833400
H        -1.85408800     -0.49006500      2.44794900
H        -8.21654000     -0.66803200     -1.72262200
S         5.48587500      0.13312900      0.00177500
