61
O=P(O)(O)CCCCN1c2ccccc2C2(c3ccccc3Oc3ccccc32)c2ccccc21
O        -8.27974200      1.27839300      0.00744000
P        -7.18704100      0.26922800      0.00172900
O        -7.21419300     -0.73364000      1.28926500
C        -5.47229900      0.82884000      0.00552300
C        -4.42742300     -0.29098800     -0.00156300
C        -2.99649400      0.24316400      0.00172500
C        -1.96190500     -0.88789000     -0.00537900
N        -0.57682200     -0.44401100     -0.00266300
C         0.05499300     -0.14564500     -1.21932500
C         1.43585200      0.14245700     -1.25930800
C         2.30458200      0.06736900      0.00038400
C         3.29435600      1.23169000      0.00766800
C         4.67789400      1.03343000      0.00645500
C         5.56753300      2.11839000      0.01325500
C         5.07302400      3.41758200      0.02137600
C         3.68865200      3.63934300      0.02274100
C         2.82043100      2.55211500      0.01592200
C         3.06249700     -1.26640900     -0.00809100
C         4.46045800     -1.32255200     -0.00836200
C         5.13959000     -2.54877100     -0.01611200
C         4.41990000     -3.73855100     -0.02371300
C         3.01913100     -3.70642000     -0.02360300
C         2.35913700     -2.48080900     -0.01586300
C         2.04282600      0.42309300     -2.48773900
C         1.32667000      0.42421700     -3.68247900
C        -0.03980600      0.14224300     -3.64408200
C        -0.66891700     -0.13291900     -2.43270800
C         0.05513800     -0.16100500      1.21759100
C         1.43600900      0.12654000      1.26104000
C         2.04314200      0.39160700      2.49284600
C         1.32712400      0.37768200      3.68759000
C        -0.03936900      0.09627900      3.64579600
C        -0.66863100     -0.16355700      2.43112000
O        -7.21468800     -0.71811200     -1.29787300
H        -8.08416800     -0.70247000      1.71523500
H        -5.36200800      1.48240700     -0.87561200
H        -5.36209300      1.47116200      0.89489300
H        -4.58901900     -0.93866300      0.87625100
H        -4.58910800     -0.92757900     -0.88743600
H        -2.83388300      0.89282900     -0.87398300
H        -2.83382700      0.88183300      0.88547300
H        -2.11601900     -1.54198800      0.86486500
H        -2.11608900     -1.53106400     -0.88371600
H         6.63845800      1.90862000      0.01196100
H         5.76715200      4.26111700      0.02666000
H         3.29258300      4.65685600      0.02910400
H         1.74023800      2.71285600      0.01691300
H         6.23085700     -2.53485600     -0.01596100
H         4.95085900     -4.69320100     -0.02974300
H         2.44571700     -4.63568300     -0.02954700
H         1.26803500     -2.45327200     -0.01576000
H         3.11322900      0.63718800     -2.49929600
H         1.82778100      0.64194000     -4.62755100
H        -0.63146900      0.14253400     -4.56265200
H        -1.73899700     -0.32753500     -2.43920900
H         3.11355600      0.60548700      2.50697600
H         1.82835400      0.58343600      4.63527600
H        -0.63092700      0.08501000      4.56436500
H        -1.73871800     -0.35820100      2.43529200
H        -8.08262300     -0.67594100     -1.72703700
O         5.24998800     -0.20618000     -0.00124300
