50
CSc1ccc(-c2ccc3c(c2)c2ccccc2n3CCCP(=O)(O)O)cc1
C         1.67533700      4.77225500     -1.00539400
C         2.95413600      4.39227000     -0.55800300
C         3.16689400      3.17265400      0.08707000
C         2.06214200      2.33578400      0.27977400
C         0.76287500      2.70195200     -0.17483200
C         0.57770000      3.93203900     -0.81782200
N         1.99273900      1.09020700      0.89436500
C         0.68622800      0.62477800      0.81654400
C        -0.12049900      1.60430100      0.17246600
C         0.13678100     -0.58306100      1.25903600
C        -1.22619200     -0.79322100      1.06088300
C        -2.05753300      0.16393600      0.42964100
C        -1.48509300      1.36674100     -0.01288500
C         4.96930300     -1.31819700      0.85899000
P         5.80029600     -2.36911100     -0.34977800
O         6.97201300     -3.17711700      0.08117900
O         4.55921900     -3.26075000     -0.91927200
O         6.13581100     -1.30315500     -1.53731900
C         3.12090200      0.33662100      1.38865900
C         3.77791100     -0.53028500      0.31003700
H         3.80106900      5.06314600     -0.72071700
H         4.16552200      2.88676700      0.42200400
H        -0.41370300      4.22678900     -1.16997800
H         0.74626600     -1.34273500      1.75155000
H        -1.67280900     -1.71992800      1.42624400
H        -2.10075400      2.10638700     -0.52864600
H         4.66537900     -1.98508500      1.68324000
H         5.74536800     -0.64579300      1.26158300
H         4.86708400     -4.14745500     -1.16057600
H         6.96159900     -1.54619900     -1.98257500
H         3.85365900      1.04318100      1.81038000
H         2.77951500     -0.29061200      2.22777000
H         3.03070200     -1.22564400     -0.10256700
H         4.10793000      0.11147600     -0.52140100
H         1.54469600      5.73323400     -1.50755900
C        -3.50321300     -0.10332400      0.23879300
C        -3.98021900     -1.39268900     -0.04679900
C        -4.45687200      0.92913000      0.33439500
C        -5.33986600     -1.65083500     -0.22989200
H        -3.27085100     -2.21602500     -0.15540200
C        -5.81340200      0.68505500      0.15290500
H        -4.12980000      1.94116500      0.58225100
C        -6.27740700     -0.61236000     -0.13267700
H        -5.65455600     -2.66857200     -0.45990400
H        -6.52884400      1.50636900      0.24441000
S        -8.02734700     -0.80491400     -0.34537400
C        -8.21396600     -2.58251200     -0.65079500
H        -7.85697800     -3.17975800      0.20128600
H        -9.29250200     -2.75095600     -0.77655700
H        -7.69606800     -2.89392900     -1.57000800
