54
CSc1ccc(N(c2ccc(SC)cc2)c2ccc(-c3ccc(P(=O)(O)O)s3)cc2)cc1
C        -4.63899300     -3.43561500     -0.04913100
C        -3.45109600     -3.40494000      0.69731100
C        -2.63971500     -2.26960600      0.69253600
C        -2.97822200     -1.14529900     -0.07230700
C        -4.16497200     -1.17820400     -0.82482100
C        -4.98489000     -2.30024200     -0.80642100
N        -2.15323900      0.00807700     -0.07961400
C        -2.76008400      1.28512900      0.03086800
C        -0.75738400     -0.11220700     -0.19362400
C        -2.36217900      2.34653400     -0.79296200
C        -2.95813400      3.60340600     -0.68184100
C        -3.98776900      3.82493500      0.24554600
C        -4.39597900      2.75396300      1.06318400
C        -3.78724900      1.50847600      0.96396800
P         7.68137700     -0.03541600      0.24951800
O         7.80902400     -0.49800700      1.81213600
O         8.69895400     -0.65902700     -0.63458400
O         7.69057900      1.57332500      0.43799700
C         0.10289800      0.79332100      0.45665700
C         1.48166700      0.67559100      0.33207900
C         2.06915400     -0.35476200     -0.42777000
C         1.20028500     -1.26258900     -1.06550200
C        -0.17969000     -1.14259800     -0.96124600
H        -3.14962700     -4.25841800      1.30411000
H        -1.72600700     -2.25636200      1.28930300
H        -4.44275800     -0.30986500     -1.42452600
H        -1.57182500      2.18695900     -1.52850300
H        -2.61682700      4.40196100     -1.34009100
H        -4.10888900      0.69146700      1.61193600
H         8.22081200     -1.37319500      1.86402100
H         8.52105700      1.88436300      0.83002500
H        -0.32019300      1.59761400      1.05927500
H         2.11907800      1.40476500      0.83783500
H         1.61353500     -2.08368200     -1.65382600
H        -0.82580500     -1.85624500     -1.47352400
H        -5.19306700      2.90670200      1.79518800
H        -5.90375600     -2.30519400     -1.39817900
S        -4.83075600      5.36846100      0.47282200
S        -5.75812300     -4.80970900     -0.11520500
C        -4.02073900      6.46146600     -0.72585400
H        -4.16419400      6.11014000     -1.75835400
H        -4.50863400      7.43946600     -0.61271400
H        -2.94722200      6.57260300     -0.51275800
C        -4.96888700     -6.03687100      0.96120600
H        -4.88457500     -5.67509000      1.99662100
H        -5.62943300     -6.91478600      0.94461100
H        -3.97791600     -6.33013900      0.58410700
C         3.52105400     -0.48619000     -0.56151200
C         4.23980800     -1.18833900     -1.51643900
S         4.60413400      0.28756900      0.56908100
C         5.64410300     -1.09762800     -1.34436200
H         3.76656000     -1.73139500     -2.33430600
C         6.00405100     -0.32665100     -0.25715900
H         6.38691800     -1.56489100     -1.99168900
