47
CSc1ccc(N(c2ccc(SC)cc2)c2ccc(P(=O)(O)O)cc2)cc1
C        -2.52137800      3.74131600      0.22148100
C        -1.43321100      3.56771800     -0.64751000
C        -0.77740300      2.33828800     -0.72492900
C        -1.17333000      1.25970900      0.07639200
C        -2.26006500      1.43430100      0.94973200
C        -2.92754500      2.65162800      1.01516700
N        -0.50881300      0.00767500     -0.00199800
C        -1.29652900     -1.17139600     -0.07888500
C         0.89189300     -0.06323400     -0.00539100
C        -1.00802000     -2.28500000      0.72032700
C        -1.78491300     -3.44170600      0.64487300
C        -2.88855500     -3.50380700     -0.21986500
C        -3.18582600     -2.37814500     -1.01143400
C        -2.39846100     -1.23446600     -0.94809500
P         5.49288800     -0.33244400     -0.05427300
O         5.87668900     -0.20682600      1.51855400
O         6.02775300     -1.49205800     -0.81668900
O         6.06619800      1.10414000     -0.59639100
C         1.56005500     -1.09820200     -0.69001800
C         2.94921200     -1.16784400     -0.68221700
C         3.71043200     -0.20570500     -0.00191700
C         3.04891100      0.83118900      0.67736900
C         1.66176300      0.90079600      0.68132100
H        -1.09171100      4.38203700     -1.28600800
H         0.05862300      2.21437300     -1.41553800
H        -2.58115100      0.60125600      1.57728800
H        -0.16038600     -2.24731900      1.40684400
H        -1.52450200     -4.28700500      1.28128200
H        -2.63617700     -0.37285800     -1.57422200
H         6.83642900     -0.15715100      1.64692100
H         6.34347500      1.01334000     -1.51990300
H         0.98047700     -1.84658800     -1.23099700
H         3.46468400     -1.96953700     -1.21540100
H         3.62629900      1.58059400      1.22300500
H         1.15805200      1.70050400      1.22488200
H        -4.03874800     -2.40793200     -1.69413100
H        -3.77063500      2.76752800      1.70088500
S        -3.95776000     -4.90713700     -0.39623600
S        -3.44279100      5.24552600      0.40135400
C        -3.23724600     -6.12116200      0.74170100
H        -3.26440500     -5.76870700      1.78336100
H        -3.86508600     -7.01864200      0.65429300
H        -2.20592700     -6.37926500      0.45908500
C        -2.61597600      6.37643200     -0.74976700
H        -2.68617900      6.02216400     -1.78881100
H        -3.15196300      7.33172300     -0.66354800
H        -1.56196600      6.53387700     -0.47690200
