21
O=C(O)Cc1ccc(C(F)(F)F)cc1
C        -1.43993300      0.05878100     -0.12688700
C        -0.63502300     -1.05963400     -0.37334700
C         0.72852900     -0.89853100     -0.60785700
C         1.30796900      0.37981400     -0.60046400
C         2.79455300      0.54453300     -0.85473000
C         3.60111500     -0.22047400      0.17669400
O         4.00082900      0.56569900      1.19226100
O         3.83450600     -1.40252600      0.12901600
C         0.49422200      1.49120500     -0.34986800
C        -0.87309600      1.33598300     -0.11693600
H        -1.08018000     -2.05573300     -0.38823700
H         1.35978500     -1.77060000     -0.79066500
H         3.05554900      0.12745000     -1.83915700
H         3.07113100      1.60632300     -0.83193500
H         4.46944200     -0.00699600      1.82469300
H         0.93307300      2.49167800     -0.34012000
H        -1.50134600      2.20866900      0.06821400
C        -2.90334300     -0.12235300      0.17987000
F        -3.62891500      0.95103200     -0.18074800
F        -3.41791500     -1.19121900     -0.45363300
F        -3.11318100     -0.31116000      1.49750800
