42
N#C/C(=C\c1ccc(N(c2ccccc2)c2ccccc2)cc1)C(=O)O
C         3.65227500     -0.75774900     -0.28869900
C         4.74106500     -0.00404100      0.05757100
C         6.08561000     -0.59534500     -0.19759200
C         2.23588500     -0.50731100     -0.18986300
C         1.35826400     -1.51432600     -0.65905600
C        -0.01790100     -1.36944000     -0.61381500
C        -0.59347000     -0.19290700     -0.08500900
C         0.27218000      0.81932100      0.39146400
C         1.64690200      0.66767300      0.33924000
N        -1.97812800     -0.03202300     -0.03286300
C        -2.56674600      1.26335800     -0.07690800
C        -3.57836800      1.60349700      0.83325600
C        -4.17392000      2.86395400      0.77736600
C        -3.75963400      3.80056000     -0.17446000
C        -2.74914200      3.46246100     -1.07990000
C        -2.16039700      2.19824600     -1.04123600
C        -2.84430000     -1.15721600      0.05867200
C        -2.59834000     -2.17167700      0.99675600
C        -3.45986900     -3.26540100      1.08525200
C        -4.58276800     -3.35103100      0.25623400
C        -4.83504900     -2.33364000     -0.66892800
C        -3.96951400     -1.24444700     -0.77454700
H         1.78271500     -2.42782500     -1.08314900
H        -0.66211000     -2.16017900     -0.99765000
H        -0.15103200      1.72907800      0.81692600
H         2.27338100      1.46840500      0.72859800
H        -3.89291300      0.87251100      1.57985700
H        -4.96049900      3.11948000      1.49121300
H        -2.42406700      4.18412900     -1.83294600
H        -1.38153400      1.92814000     -1.75635900
H        -1.73000500     -2.09581800      1.65341000
H        -3.25896000     -4.04999100      1.81857000
H        -5.70858900     -2.39186700     -1.32253000
H        -4.16038300     -0.45157100     -1.49959600
H         3.92865700     -1.72527900     -0.72026200
O         7.08319100      0.22536000      0.17641900
H         7.91528500     -0.23473800     -0.02412700
O         6.27805200     -1.68586700     -0.68433300
C         4.67379500      1.29698200      0.64037300
N         4.60139600      2.35583900      1.11471000
H        -4.22299300      4.78877100     -0.21170500
H        -5.25910800     -4.20504600      0.33309700
