50
O=P(O)(O)c1ccc(-c2ccc(N(c3ccccc3)c3ccccc3)cc2)c2nsnc12
S         3.62554100      1.91672200      2.28132300
N         2.27485900      1.32595200      1.56342500
C         2.66932300      0.51430500      0.57859600
C         1.81186300     -0.23756200     -0.30841100
C         2.46184200     -1.02806000     -1.24487200
C         3.87684100     -1.11957000     -1.34504700
C         4.72396700     -0.41449000     -0.51591300
C         4.12279100      0.42242700      0.47511500
N         4.76677000      1.16525700      1.37665100
C         0.34034600     -0.18679800     -0.22416400
C        -0.35076100      0.96443400      0.20465800
C        -1.73950900      1.00189600      0.24391100
C        -2.50403600     -0.11483700     -0.14207400
C        -1.82372500     -1.27299700     -0.56419600
C        -0.43558100     -1.30284200     -0.59810400
N        -3.90972900     -0.07871900     -0.10119000
C        -4.64923600     -1.24304900      0.23028500
C        -5.79760700     -1.58405200     -0.50269200
C        -6.53327700     -2.72049200     -0.16623600
C        -6.12850000     -3.54061600      0.89138200
C        -4.98189600     -3.20572800      1.61843400
C        -4.25043300     -2.06145800      1.29988700
C        -4.60736900      1.12235100     -0.38925600
C        -4.22722500      1.92591000     -1.47676000
C        -4.91872800      3.10532300     -1.75337600
C        -6.00778200      3.49128700     -0.96571500
C        -6.39455900      2.68649900      0.11019400
C        -5.69744700      1.51465100      0.40458000
H         1.86536600     -1.59355000     -1.96224100
H         4.32003900     -1.76038900     -2.11074700
H         0.21215300      1.83972900      0.52304900
H        -2.24558200      1.90682000      0.58195100
H        -2.39324200     -2.15467000     -0.85967900
H         0.05862800     -2.22482200     -0.90941900
H        -6.10856700     -0.94970700     -1.33429200
H        -7.42489800     -2.97352700     -0.74508100
H        -4.65952500     -3.83358100      2.45267600
H        -3.36384400     -1.79376700      1.87703100
H        -3.38658700      1.61931400     -2.10127500
H        -4.61110200      3.72101100     -2.60212000
H        -7.24085800      2.97916900      0.73644500
H        -5.99407400      0.89221500      1.25027200
P         6.49544600     -0.61543900     -0.72329000
O         6.86077000     -1.59327100     -1.78233700
O         6.98563900      0.91605600     -0.88612400
H         7.93048000      1.02029700     -0.69832600
O         7.12713300     -0.99383900      0.73417600
H         7.38795600     -1.92704300      0.73205100
H        -6.55131700      4.41176000     -1.18935600
H        -6.70282800     -4.43339700      1.14796400
