44
N#C/C(=C\c1ccc(N(c2ccccc2)c2ccccc2)cc1)P(=O)(O)O
N        -2.61389300     -0.04188100     -0.03099500
C        -3.44604200     -1.19246400      0.04510300
C        -3.16519300     -2.21601500      0.96374800
C        -3.99266500     -3.33675300      1.03664200
C        -5.11691200     -3.44209000      0.21168700
C        -5.40438500     -2.41634600     -0.69375700
C        -4.57271300     -1.29976400     -0.78425300
C        -3.23557500      1.23740000     -0.07319700
C        -2.83643300      2.19173600     -1.02156000
C        -3.45460100      3.44185500     -1.05785500
C        -4.48759300      3.74680000     -0.16614000
C        -4.89441700      2.79102000      0.76971400
C        -4.26965900      1.54466600      0.82357200
C        -1.22280600     -0.16209200     -0.06968500
C        -0.39365000      0.85948400      0.44719900
C         0.98620400      0.74872800      0.40865600
C         1.61461500     -0.39165400     -0.14575000
C         0.77403300     -1.40871300     -0.65497700
C        -0.60714900     -1.30467500     -0.62440000
C         3.04465000     -0.59844400     -0.23129700
C         4.09117100      0.19499400      0.14610600
P         5.79822000     -0.36790300     -0.02344000
O         5.64536400     -1.63756300     -1.03221900
O         6.44454900      0.81184200     -0.92977400
O         6.57741200     -0.67432100      1.20490100
C         3.96905000      1.48596500      0.73707300
N         3.91591400      2.54413500      1.21655100
H        -2.29636400     -2.12556800      1.61782300
H        -3.76425500     -4.12738100      1.75532300
H        -6.27915500     -2.48925900     -1.34428300
H        -4.79157000     -0.50082500     -1.49453000
H        -2.03935400      1.94760000     -1.72584600
H        -3.13447500      4.17852000     -1.79842100
H        -5.69821900      3.02061300      1.47314800
H        -4.57841600      0.79949400      1.55848500
H        -0.84865800      1.74403600      0.89271900
H         1.58323100      1.55570800      0.83018100
H         1.22929200     -2.29753400     -1.09942500
H        -1.22351100     -2.10238900     -1.03872000
H         3.33728900     -1.55060300     -0.68129000
H         6.22189000     -2.35416000     -0.72500700
H         7.31732500      1.05637500     -0.58564500
H        -5.76681100     -4.31732300      0.27668800
H        -4.97386300      4.72398000     -0.20152600
