38
OB(O)c1ccc(N(c2ccccc2)c2ccccc2)cc1
N        -0.92935200     -0.00000100      0.00042200
C        -1.64088400      1.22423400     -0.02432000
C        -1.21479800      2.28014100     -0.84793700
C        -1.91527900      3.48609100     -0.86401700
C        -3.05889000      3.65496100     -0.07717600
C        -3.49045200      2.60221100      0.73562200
C        -2.78606400      1.39881200      0.77114500
C        -1.64107800     -1.22414400      0.02465200
C        -1.21540400     -2.28021900      0.84829800
C        -1.91598400     -3.48609800      0.86394100
C        -3.05934300     -3.65474200      0.07665800
C        -3.49049100     -2.60185300     -0.73615200
C        -2.78598700     -1.39848900     -0.77122700
C         0.48353900     -0.00008600      0.00027000
C         1.19914400     -0.96323300     -0.73407400
C         2.59090900     -0.95983800     -0.72393000
C         3.32355800     -0.00008500     -0.00001100
C         2.59105300      0.95970000      0.72402300
C         1.19929500      0.96310100      0.73442400
B         4.88305600     -0.00008900     -0.00016400
O         5.53202300      0.96546700      0.72542300
O         5.53187600     -0.96578700     -0.72569400
H        -0.32936300      2.14699200     -1.47131700
H        -1.57012100      4.29758600     -1.50952700
H        -4.37895700      2.72189400      1.36058500
H        -3.11872300      0.58307000      1.41486400
H        -0.33019400     -2.14720600      1.47202500
H        -1.57116500     -4.29772400      1.50946700
H        -4.37878500     -2.72134400     -1.36145100
H        -3.11837000     -0.58263300     -1.41494300
H         0.65237700     -1.70989400     -1.31199700
H         3.13044800     -1.71301800     -1.30324800
H         3.13070700      1.71289900      1.30320600
H         0.65262300      1.70979500      1.31240000
H         6.49491900      0.92939600      0.70162900
H         6.49477700     -0.92983400     -0.70193900
H        -3.60938300     -4.59806200      0.09672500
H        -3.60885500      4.59831800     -0.09758300
