52
N#C/C(=C\c1ccc(-c2ccc(N(c3ccccc3)c3ccccc3)cc2)cc1)C(=O)O
C         2.46443500     -0.84940500     -1.34683400
C         1.80735300     -0.18374200     -0.29206700
C         2.61165300      0.43201900      0.69128500
C         3.99716800      0.39029600      0.63329000
C         4.65519900     -0.27803700     -0.42535400
C         3.84964500     -0.89466600     -1.41022000
C         6.09028100     -0.38143000     -0.58136300
C         7.12469500      0.08891000      0.17632000
C         8.50850200     -0.21483900     -0.29843000
C         0.33379200     -0.13286400     -0.21777700
C        -0.46414100     -1.17234900     -0.73438300
C        -1.85172300     -1.12857800     -0.66777800
C        -2.50720900     -0.03503900     -0.07060900
C        -1.72002700      1.00907300      0.45113800
C        -0.33340300      0.95726200      0.37402900
N        -3.91118700      0.01352400      0.00297600
C        -4.59243700      1.25305200     -0.10992400
C        -5.65512800      1.55832700      0.75579500
C        -6.33153700      2.77238700      0.63545900
C        -5.95050300      3.70408300     -0.33510000
C        -4.88909800      3.40370600     -1.19443500
C        -4.21907500      2.18451500     -1.09260700
C        -4.66268600     -1.17397300      0.19638500
C        -4.24746500     -2.13720500      1.13059800
C        -4.99122200     -3.30283200      1.31427800
C        -6.16614600     -3.51743800      0.58704200
C        -6.58701200     -2.55395900     -0.33478100
C        -5.83969700     -1.39371300     -0.53765200
H         2.13693900      0.93235100      1.53682300
H         4.57204400      0.87226800      1.42199400
H         0.01055900     -2.04559600     -1.18585900
H        -2.44137200     -1.95013600     -1.07595200
H        -2.20632700      1.86762000      0.91527800
H         0.24452900      1.79337400      0.77186100
H        -5.94575400      0.83584200      1.52006000
H        -7.15655900      2.99686000      1.31584300
H        -4.58723900      4.11962800     -1.96277800
H        -3.39999200      1.94573500     -1.77294800
H        -3.33897600     -1.96511100      1.71001200
H        -4.65614400     -4.04370500      2.04427000
H        -7.50089000     -2.71141900     -0.91273400
H        -6.16334300     -0.64665300     -1.26412600
H         6.42764300     -0.93532100     -1.46335700
O         9.44773000      0.29292800      0.51688400
H        10.31060900      0.05234900      0.13983700
O         8.76909300     -0.84310300     -1.29753900
C         6.97565700      0.84348300      1.37940400
N         6.84200000      1.45708400      2.35724300
H         4.33459100     -1.40846700     -2.24397000
H         1.87814000     -1.31349000     -2.14141700
H        -6.47780800      4.65647500     -0.42211600
H        -6.75012600     -4.42771800      0.73873500
