79
O=C(O)c1cc(-c2ccc(N(c3ccccc3)c3ccccc3)cc2)cc(-c2ccc(N(c3ccccc3)c3ccccc3)cc2)c1
O        -1.07060700      6.19634200      0.03183600
C        -0.05380200      5.54199200      0.01331800
O         1.16851400      6.11653700     -0.00604900
C        -0.00014400      4.05332400      0.00884800
C         1.21495800      3.35896500     -0.00757000
C         1.22862900      1.95483900     -0.01093900
C         2.50893300      1.20832200     -0.01496700
C         2.64738700     -0.01401200      0.66759900
C         3.85197000     -0.71017300      0.67713700
C         4.96982500     -0.21490100     -0.01726100
N         6.19104400     -0.92163100     -0.01687200
C         7.42169600     -0.22157700      0.03238100
C         8.50613500     -0.63508900     -0.75972300
C         9.72100200      0.04769300     -0.70047700
C         9.87090600      1.16076800      0.13238000
C         8.79051900      1.57893600      0.91548100
C         7.57758100      0.89140200      0.87605200
C         6.19297600     -2.33775500     -0.06873100
C         7.07117300     -3.07690800      0.74128200
C         7.07978400     -4.47036700      0.67951000
C         6.20487300     -5.14924300     -0.17421900
C         5.32425500     -4.41563400     -0.97536500
C         5.32120000     -3.02141600     -0.93275100
C         4.84014500      1.00084400     -0.71169100
C         3.63622200      1.69797100     -0.69972600
C        -0.00178200      1.27720900      0.00272200
C        -1.23268800      1.95566800      0.01907700
C        -2.51409300      1.21139800      0.02040800
C        -3.64413500      1.70857100      0.69521400
C        -4.84960400      1.01437900      0.70460100
C        -4.97835200     -0.20548000      0.01713100
N        -6.20171000     -0.90843500      0.01320700
C        -6.20889500     -2.32409000      0.07187200
C        -7.08671000     -3.06414200     -0.73784000
C        -7.10091700     -4.45721100     -0.66905000
C        -6.23204000     -5.13516800      0.19154400
C        -5.35177100     -4.40080400      0.99239600
C        -5.34314500     -3.00685600      0.94273000
C        -7.42987500     -0.20439600     -0.04667800
C        -8.51977800     -0.60970400      0.74207800
C        -9.73189900      0.07700700      0.67270900
C        -9.87337000      1.18602400     -0.16699400
C        -8.78744400      1.59612000     -0.94667100
C        -7.57725900      0.90439800     -0.89725800
C        -3.85773100     -0.70810500     -0.66747700
C        -2.65146300     -0.01490900     -0.65513100
C        -1.21441800      3.35813400      0.02189600
H         1.01765700      7.07637800      0.00089300
H         2.14892700      3.91916900      0.00803300
H         1.80573300     -0.40988400      1.23980700
H         3.93817900     -1.64356300      1.23503500
H         8.38827700     -1.49682500     -1.41846000
H        10.55480900     -0.28706200     -1.32250400
H        10.82132500      1.69731200      0.17127000
H         8.89554300      2.44279000      1.57650700
H         6.74084300      1.21297300      1.49814700
H         7.74702200     -2.54928900      1.41614100
H         7.76922000     -5.03100300      1.31556800
H         6.20952600     -6.24056900     -0.21530900
H         4.64030300     -4.93282900     -1.65282300
H         4.64199800     -2.45063800     -1.56799200
H         5.69155400      1.39256900     -1.26974300
H         3.55907400      2.62747600     -1.26763300
H        -0.00152900      0.18625700      0.00052800
H        -3.56872100      2.64246000      1.25592000
H        -5.70339400      1.41245200      1.25441100
H        -7.75794500     -2.53743700     -1.41797600
H        -7.79007400     -5.01836400     -1.30496800
H        -6.24113900     -6.22624700      0.23822200
H        -4.67255000     -4.91712500      1.67528000
H        -4.66436400     -2.43549900      1.57788600
H        -8.40834900     -1.46804800      1.40634200
H       -10.57009500     -0.25123000      1.29231400
H       -10.82150200      1.72599400     -0.21357100
H        -8.88561900      2.45710300     -1.61243600
H        -6.73606300      1.22006000     -1.51633800
H        -3.94311000     -1.64457700     -1.22029900
H        -1.80785300     -0.41663700     -1.22033600
H        -2.13940700      3.93511200      0.01038700
