51
O=P(O)(O)c1ccc(-n2c3ccc(-c4cccs4)cc3c3cc(-c4cccs4)ccc32)cc1
C        -2.10587900     -3.03363200      0.06354200
C        -0.74513800     -3.43061100      0.07477500
C         0.29854900     -2.51002500      0.05398300
C        -0.02484900     -1.14998200      0.00343400
C        -1.37870200     -0.72139300      0.00185900
C        -2.40932000     -1.66330800      0.03322700
C        -1.35904900      0.72977300     -0.00474100
C        -2.36383900      1.69915000     -0.03406900
C        -2.02395900      3.06095400     -0.06406800
C        -0.65309800      3.42114400     -0.07678500
C         0.36545700      2.47264000     -0.05839500
C         0.00601800      1.12163300     -0.00838300
N         0.80840500     -0.02510800     -0.00313000
C         2.21954200     -0.04443000     -0.00838900
C         2.93697900      0.71566100      0.93050300
C         4.32869600      0.70354900      0.92154000
C         5.02059200     -0.08204400     -0.01343300
C         4.30405800     -0.84640300     -0.94409800
C         2.91042800     -0.82245300     -0.94856600
P         6.81509400     -0.12671000     -0.08281200
O         7.31762800      1.42566600     -0.18334100
O         7.18045200     -0.45245300      1.46214500
O         7.38295100     -0.99948800     -1.14299700
H        -0.50591900     -4.49517600      0.08286700
H         1.33444500     -2.84931900      0.07182700
H        -3.44967900     -1.33159200      0.05637900
H        -3.41275300      1.39542000     -0.05579700
H        -0.38531000      4.47893900     -0.08423100
H         1.41011200      2.78395600     -0.07729900
H         2.39392200      1.29932300      1.67494300
H         4.88089100      1.29283800      1.65632000
H         4.85344200     -1.44849900     -1.67072200
H         2.35018900     -1.39413500     -1.68953500
H         7.60431200      1.62217100     -1.08764600
H         8.13831800     -0.46051700      1.61347200
C        -3.16484600     -4.04912400      0.09441900
C        -3.11200800     -5.34059400      0.58100000
S        -4.75512000     -3.71475000     -0.55301600
C        -4.34113400     -6.04968400      0.44421200
H        -2.22154000     -5.75919400      1.05072600
C        -5.32381700     -5.29720700     -0.14848200
H        -4.49190500     -7.07675100      0.77955500
H        -6.35005800     -5.58279900     -0.37326000
C        -3.05538300      4.10448100     -0.09285600
C        -2.96878700      5.39430600     -0.57906100
S        -4.65300100      3.81244700      0.55673100
C        -4.17817200      6.13606500     -0.43972000
H        -2.06826900      5.78895500     -1.05037800
C        -5.17969700      5.40990100      0.15430200
H        -4.30200200      7.16695700     -0.77437300
H        -6.19759000      5.72268100      0.38082000
