126
COc1ccc(N(c2ccc(OC)cc2)c2ccc(-c3ccc4c(c3)Sc3cc(-c5ccc(N(c6ccc(OC)cc6)c6ccc(OC)cc6)cc5)ccc3N4CCCCCCP(=O)(O)O)cc2)cc1
C         3.72556500      0.22949100     -0.90678200
C         3.64200700      1.62812300     -0.85311800
C         2.43182400      2.29631900     -1.03867600
C         1.23742700      1.60449900     -1.31432600
C         1.32831500      0.19658300     -1.40484700
C         2.53369000     -0.46539300     -1.18125700
N         0.01404100      2.27666800     -1.50561000
C        -1.22599500      1.65251400     -1.26529400
C        -1.37514100      0.24918600     -1.34971500
S        -0.05454300     -0.76174100     -1.96706800
C        -2.38108700      2.38965000     -0.94393000
C        -3.60708400      1.76853800     -0.70607600
C        -3.74670800      0.37418600     -0.75179500
C        -2.59477600     -0.36566500     -1.07510100
C         0.03895200      3.72460000     -1.67508200
C         0.07794100      4.55504900     -0.38384900
C         0.10388200      6.05585100     -0.66880900
C         0.13393700      6.91382000      0.59577200
C         0.16143800      8.41417100      0.30401900
C         0.19106800      9.26312100      1.57885900
C         4.99948800     -0.48791300     -0.68618000
C        -5.03677200     -0.29428800     -0.47319900
C         5.03054800     -1.76332800     -0.09107500
C         6.22606200     -2.44017300      0.12690100
C         7.45472700     -1.87091500     -0.25738800
C         7.43546200     -0.59892600     -0.86004300
C         6.23456400      0.07375500     -1.06081700
C        -6.26605000      0.31961500     -0.77819700
C        -7.48174700     -0.30082100     -0.50846000
C        -7.52177200     -1.58382900      0.06933100
C        -6.29837800     -2.21106700      0.37123300
C        -5.08953200     -1.57354000      0.11159400
N        -8.74773400     -2.22075000      0.33831800
N         8.66731400     -2.55286300     -0.04610000
C        -8.88195200     -3.08055400      1.45893800
C        -9.87011300     -2.01630100     -0.50432200
C         9.85216900     -1.83597700      0.26115100
C         8.72635000     -3.96697000     -0.13796600
C         9.43296500     -4.71584400      0.82099000
C         9.50811600     -6.09945400      0.72693200
C         8.86150500     -6.78084000     -0.31813900
C         8.14912100     -6.04339200     -1.27482000
C         8.09749800     -4.64958000     -1.18642000
C        11.06407300     -2.15081900     -0.38041700
C        12.23024200     -1.46243500     -0.07222900
C        12.21764700     -0.42350200      0.87384500
C        11.01278100     -0.09776900      1.51344600
C         9.84816900     -0.81017600      1.21398100
C       -11.14442000     -1.78930900      0.04734400
C       -12.25048500     -1.60439100     -0.77201000
C       -12.11441200     -1.62061400     -2.17041400
C       -10.84711000     -1.83944600     -2.72956600
C        -9.74291000     -2.04764800     -1.89840000
C        -9.51971800     -4.32771500      1.32957100
C        -9.66713500     -5.16670300      2.42648800
C        -9.16367700     -4.79322500      3.68417400
C        -8.51978300     -3.55483900      3.82114100
C        -8.39570700     -2.70654500      2.71739900
O         8.97981200     -8.13417400     -0.31869600
C         8.35047500     -8.87047600     -1.33969800
O        13.40353800      0.19951000      1.09976100
C        13.45243300      1.24412600      2.04134900
O       -13.24971300     -1.41739600     -2.88838200
C       -13.17438200     -1.42319200     -4.29360100
O        -9.34478400     -5.68400000      4.69350300
C        -8.86453300     -5.36321400      5.97698800
H         4.53165100      2.21606500     -0.62049000
H         2.43069600      3.38017600     -0.95140100
H         2.54847700     -1.55320300     -1.27206400
H        -2.33574400      3.47286500     -0.86146600
H        -4.46251500      2.39160600     -0.43918000
H        -2.65391100     -1.45222500     -1.16233700
H         0.91036600      3.97351100     -2.29957800
H        -0.84405100      4.00700200     -2.26845600
H        -0.79276100      4.31009500      0.24449100
H         0.95860900      4.27414400      0.21513900
H         0.98268600      6.29800800     -1.29448600
H        -0.77863100      6.33176800     -1.27508200
H        -0.74639100      6.67603900      1.22014500
H         1.01618000      6.64063800      1.20282800
H         1.04249900      8.65895200     -0.31170500
H        -0.72108700      8.69453100     -0.29434700
H        -0.69166900      9.06636000      2.20979300
H         1.07864900      9.03299300      2.19148700
H         4.09875000     -2.22228900      0.24650500
H         6.21660500     -3.41820200      0.60975300
H         8.37351100     -0.14508600     -1.18227300
H         6.25390400      1.04571900     -1.55856200
H        -6.27364000      1.30439100     -1.25008200
H        -8.41596300      0.20484100     -0.75558700
H        -6.30189900     -3.20394800      0.82258400
H        -4.16125500     -2.08075000      0.38281600
H         9.92934300     -4.19697700      1.64274200
H        10.05574000     -6.68631600      1.46663900
H         7.64146500     -6.53805400     -2.10238100
H         7.55140800     -4.08229800     -1.94199500
H        11.08169500     -2.94950900     -1.12387300
H        13.17430300     -1.70273400     -0.56463000
H        10.96829500      0.69767900      2.25698800
H         8.91683800     -0.55964900      1.72477200
H       -11.25881900     -1.76458600      1.13234400
H       -13.24201600     -1.42963900     -0.35032400
H       -10.70594500     -1.86527700     -3.80977400
H        -8.76244600     -2.22968800     -2.34181100
H        -9.90446900     -4.63071000      0.35429400
H       -10.16222200     -6.13510300      2.33399400
H        -8.12278900     -3.23087300      4.78284100
H        -7.90385400     -1.73924900      2.83377300
H         8.56840000     -9.92908900     -1.14510300
H         7.25480800     -8.72419500     -1.33699200
H         8.73845300     -8.60360500     -2.33973500
H        14.49054200      1.60173300      2.06223400
H        12.79023900      2.08325100      1.75971000
H        13.17221300      0.89950600      3.05354900
H       -14.19115200     -1.23730300     -4.66462700
H       -12.50434500     -0.63010000     -4.67307500
H       -12.82370900     -2.39618300     -4.68372800
H        -9.11246200     -6.21240200      6.62767800
H        -7.76894700     -5.21646500      5.98192700
H        -9.34319400     -4.45203800      6.38003100
P         0.22130400     11.04563900      1.30866800
O         0.25219300     11.95720700      2.48426500
O         1.50632200     11.21164600      0.31613900
H         1.93851600     12.06447500      0.47468800
O        -1.08040200     11.26950700      0.34856200
H        -1.50123900     12.11637000      0.56041300
