124
COc1ccc(N(c2ccc(OC)cc2)c2ccc(-c3ccc4c(c3)Sc3cc(-c5ccc(N(c6ccc(OC)cc6)c6ccc(OC)cc6)cc5)ccc3N4CCCCCCC(=O)O)cc2)cc1
C         3.74303400      0.68869800     -0.81573400
C         3.64983400      2.08454100     -0.71987600
C         2.43570600      2.74998700     -0.88845300
C         1.24659500      2.05898800     -1.18743000
C         1.34648000      0.65488700     -1.31777200
C         2.55595800     -0.00544000     -1.11221100
N         0.01992300      2.72909600     -1.36415200
C        -1.21721700      2.09183000     -1.14487800
C        -1.35787100      0.69041300     -1.26714200
S        -0.02990600     -0.29611500     -1.90769500
C        -2.37752200      2.81388900     -0.80858100
C        -3.60098900      2.17989800     -0.59254000
C        -3.73228200      0.78648300     -0.67563500
C        -2.57496900      0.06166300     -1.01335700
C         0.03656400      4.18011600     -1.50416700
C         0.06548200      4.98696700     -0.19766600
C         0.06778700      6.49277400     -0.45644500
C         0.08924400      7.32989400      0.82232900
C         0.08204600      8.83530100      0.56001800
C         0.10524200      9.66275400      1.85138100
C         5.02184900     -0.02642200     -0.61675100
C        -5.01981300      0.10399300     -0.42037300
C         5.06109100     -1.32431900     -0.07281900
C         6.26120900     -1.99980000      0.12262300
C         7.48662400     -1.40554100     -0.23284700
C         7.45956800     -0.11032000     -0.78304300
C         6.25392500      0.55989200     -0.96263800
C        -6.25070000      0.71669900     -0.72105200
C        -7.46433100      0.08351000     -0.47250800
C        -7.50031100     -1.21126900      0.07876500
C        -6.27504800     -1.83746300      0.37548200
C        -5.06841300     -1.18754000      0.13699100
N        -8.72413800     -1.86060500      0.32649300
N         8.70310400     -2.08801700     -0.04580900
C        -8.86066900     -2.74637100      1.42639500
C        -9.84327000     -1.64197500     -0.51711100
C         9.88209700     -1.37762400      0.29602800
C         8.77391800     -3.49425300     -0.21659400
C         9.48309100     -4.29070500      0.70126700
C         9.57200500     -5.66584400      0.52779100
C         8.93686300     -6.29179000     -0.55823200
C         8.22073700     -5.50713000     -1.47358500
C         8.15530700     -4.12132700     -1.30506700
C        11.09953700     -1.65917100     -0.35075700
C        12.25937100     -0.97549700     -0.00983800
C        12.23489200      0.02595200      0.97559000
C        11.02458000      0.31831000      1.62099500
C         9.86645900     -0.38978400      1.28819200
C       -11.12033600     -1.42779100      0.03318500
C       -12.22302000     -1.22882900     -0.78743600
C       -12.08052500     -1.21777800     -2.18527300
C       -10.81039400     -1.42388700     -2.74289400
C        -9.70962700     -1.64631800     -1.91086200
C        -9.49369500     -3.99223400      1.26512300
C        -9.64383900     -4.85689300      2.34153200
C        -9.14784100     -4.51105400      3.61002600
C        -8.50869500     -3.27415000      3.77874100
C        -8.38198500     -2.40002300      2.69564700
O         9.06962200     -7.64146600     -0.63770200
C         8.46045600     -8.32110900     -1.70900500
O        13.41526800      0.64778700      1.23193600
C        13.45183900      1.65528500      2.21372300
O       -13.21288600     -1.00247100     -2.90427300
C       -13.13143000     -0.98114700     -4.30902000
O        -9.33108700     -5.42546100      4.59763600
C        -8.86037300     -5.13187900      5.89112200
H         4.53479600      2.67137800     -0.46763200
H         2.42705000      3.83077100     -0.76917100
H         2.57773500     -1.08994100     -1.23512300
H        -2.33827000      3.89475900     -0.69697500
H        -4.46127800      2.79061100     -0.31293300
H        -2.62794000     -1.02254200     -1.12937100
H         0.90855900      4.44651600     -2.12076800
H        -0.84647100      4.46855300     -2.09474800
H        -0.80041500      4.71777000      0.42743900
H         0.95128500      4.70934000      0.39523100
H         0.94056700      6.75783100     -1.08141500
H        -0.82113600      6.76502700     -1.05504500
H        -0.78228400      7.06374100      1.44788500
H         0.98008500      7.06335000      1.41952700
H         0.95457500      9.10512400     -0.06077300
H        -0.81008100      9.10863900     -0.02660000
H        -0.78667200      9.42096700      2.45578400
H         0.99255000      9.43172700      2.45744400
H         4.13189500     -1.80414300      0.24203000
H         6.25818800     -2.99703500      0.56464700
H         8.39525900      0.36386700     -1.08202000
H         6.26772500      1.55108900     -1.42100500
H        -6.26095100      1.71103300     -1.17244600
H        -8.39991600      0.58851400     -0.71575200
H        -6.27544200     -2.83955900      0.80598600
H        -4.13865400     -1.69463700      0.40341300
H         9.97159600     -3.81554400      1.55364200
H        10.12248800     -6.28913000      1.23486400
H         7.72080500     -5.95787600     -2.33041700
H         7.60688100     -3.51681000     -2.02943200
H        11.12669500     -2.42787200     -1.12483500
H        13.20747500     -1.19028500     -0.50625300
H        10.97096500      1.08377700      2.39476100
H         8.93098700     -0.16554900      1.80360400
H       -11.23950500     -1.42426700      1.11795800
H       -13.21678300     -1.06390600     -0.36705900
H       -10.66443800     -1.42886300     -3.82276200
H        -8.72673900     -1.81821600     -2.35296500
H        -9.87271600     -4.27383400      0.28124700
H       -10.13537100     -5.82439500      2.22408100
H        -8.11753200     -2.97139300      4.74968200
H        -7.89414400     -1.43405500      2.83706100
H         8.69188100     -9.38670600     -1.57890100
H         7.36279700     -8.19049300     -1.70841600
H         8.85382800     -7.98603000     -2.68614100
H        14.48751700      2.01812300      2.25503500
H        12.78608500      2.50070600      1.96074600
H        13.16764000      1.26978400      3.20993500
H       -14.14686300     -0.78963800     -4.68082900
H       -12.46099100     -0.17992700     -4.67025500
H       -12.77760100     -1.94596500     -4.71619700
H        -9.10888700     -5.99657400      6.52082800
H        -7.76546500     -4.98083100      5.90650500
H        -9.34545800     -4.23197500      6.31142600
C         0.10740200     11.15409500      1.61333800
O         0.92843300     11.93403100      2.02626200
O        -0.94504900     11.54579000      0.85998600
H        -0.86382700     12.50898200      0.75196700
