121
CCCCCCN1c2ccc(-c3ccc(N(c4ccc(OC)cc4)c4ccc(OC)cc4)cc3)cc2Sc2cc(-c3ccc(N(c4ccc(OC)cc4)c4ccc(OC)cc4)cc3)ccc21
C         3.74469900      1.26636400     -0.63574300
C         3.64911800      2.65042400     -0.43117500
C         2.43399900      3.32504900     -0.54629400
C         1.24547700      2.65769600     -0.89698000
C         1.34668800      1.26744700     -1.13266400
C         2.55762600      0.59513000     -0.98116100
N         0.01952900      3.33922100     -1.02451400
C        -1.21813500      2.68835200     -0.85702000
C        -1.35889200      1.29961200     -1.08148000
S        -0.02993900      0.36148200     -1.78913500
C        -2.37921800      3.38548800     -0.47404200
C        -3.60439700      2.73898700     -0.31195500
C        -3.73587800      1.35539000     -0.49666300
C        -2.57750000      0.65505800     -0.87906700
C         0.03729200      4.79691800     -1.06586600
C         0.06462500      5.51693600      0.29025100
C         0.08386900      7.03609800      0.12766600
C         0.10466800      7.79464900      1.45462900
C         0.12591300      9.31532400      1.29261000
C         0.14307400     10.06650500      2.62273500
C         5.02653700      0.54185400     -0.49927400
C        -5.02616400      0.65909900     -0.29912700
C         5.07305700     -0.79908900     -0.07317600
C         6.27695200     -1.48298800      0.06129300
C         7.49882600     -0.85251100     -0.23877900
C         7.46486600      0.48654100     -0.67067500
C         6.25563200      1.16318300     -0.79123600
C        -6.25255400      1.29032700     -0.57876200
C        -7.46962600      0.64559700     -0.38199300
C        -7.51310700     -0.67861400      0.09328000
C        -6.29220400     -1.32352600      0.36665600
C        -5.08204700     -0.66292700      0.18025100
N        -8.74099000     -1.33853200      0.28928100
N         8.71996700     -1.54150100     -0.11250900
C        -8.89547900     -2.27956600      1.33935200
C        -9.84798300     -1.07005700     -0.55603700
C         9.88850000     -0.86048500      0.31388100
C         8.80010300     -2.92570900     -0.41040500
C         9.50996700     -3.79903300      0.43411500
C         9.60593300     -5.15242000      0.13725100
C         8.97736600     -5.68029800     -1.00322100
C         8.26030200     -4.81910500     -1.84626900
C         8.18780300     -3.45449200     -1.55330600
C        11.11834400     -1.07308900     -0.33584900
C        12.26799300     -0.41970300      0.08886600
C        12.22093700      0.48263300      1.16503600
C        10.99825700      0.70620300      1.81434300
C         9.85032500      0.02801800      1.39533800
C       -11.13005000     -0.87151700     -0.01162400
C       -12.22048500     -0.62343700     -0.83520400
C       -12.05984600     -0.54594600     -2.22901700
C       -10.78444900     -0.73592200     -2.78037400
C        -9.69631800     -1.00795300     -1.94646000
C        -9.54275300     -3.50709800      1.10809500
C        -9.71201100     -4.42561100      2.13601800
C        -9.22117700     -4.15431900      3.42441400
C        -8.56774700     -2.93653200      3.66266600
C        -8.42202300     -2.00764000      2.62866600
O         9.11761000     -7.01655100     -1.20458500
C         8.51867600     -7.59809400     -2.33745800
O        13.39318600      1.08201400      1.50073000
C        13.40724100      1.98913000      2.57649800
O       -13.18120500     -0.28631400     -2.95067000
C       -13.08214000     -0.20000600     -4.35178000
O        -9.42337100     -5.11719500      4.36125300
C        -8.96234500     -4.89595000      5.67235800
H         4.53321800      3.21787800     -0.13539900
H         2.42352500      4.39325900     -0.34359500
H         2.58010500     -0.47668000     -1.18726000
H        -2.33851800      4.45497700     -0.28224600
H        -4.46617000      3.32833400      0.00647300
H        -2.63119500     -0.41799000     -1.07308300
H         0.91079200      5.10255500     -1.66187200
H        -0.84408400      5.12490300     -1.63800100
H        -0.80807800      5.21732300      0.89188300
H         0.94342100      5.19278200      0.87002900
H         0.96380900      7.32969500     -0.47454000
H        -0.79760400      7.35351200     -0.46007300
H        -0.77660100      7.50296800      2.05528500
H         0.98526200      7.47693300      2.04297700
H         1.00814800      9.60284800      0.69246600
H        -0.75350000      9.62824000      0.70106300
H        -0.74607000      9.82484700      3.22871500
H         1.03033500      9.79904800      3.22063200
H         4.14662200     -1.31011900      0.19741600
H         6.27971800     -2.51576300      0.41238200
H         8.39836900      0.99062300     -0.92453200
H         6.26418300      2.19094100     -1.16032000
H        -6.25565300      2.30931000     -0.97151800
H        -8.40190800      1.16508200     -0.60696800
H        -6.29897700     -2.34898600      0.73811300
H        -4.15536500     -1.18565800      0.42663700
H         9.99326100     -3.40150800      1.32813000
H        10.15719800     -5.83460200      0.78703000
H         7.76551700     -5.19269800     -2.74245900
H         7.63870000     -2.78912200     -2.22168200
H        11.16369300     -1.76430600     -1.17905200
H        13.22554700     -0.58177200     -0.40946300
H        10.92673900      1.39264500      2.65758200
H         8.90502200      0.19736900      1.91369800
H       -11.26286400     -0.91949500      1.07052200
H       -13.21826100     -0.47039000     -0.41987500
H       -10.62489300     -0.69008700     -3.85735400
H        -8.70897800     -1.16689100     -2.38344400
H        -9.91832700     -3.73158400      0.10838700
H       -10.21510900     -5.37885300      1.96368800
H        -8.18007300     -2.69057700      4.65088600
H        -7.92388300     -1.05681000      2.82550200
H         8.75515800     -8.66999300     -2.30414700
H         7.42030700     -7.47359800     -2.33224400
H         8.91617800     -7.17277000     -3.27711600
H        14.44037200      2.34899300      2.67220100
H        12.74245300      2.85348700      2.39498800
H        13.10656700      1.50767000      3.52498000
H       -14.09119100      0.01801500     -4.72635800
H       -12.40039000      0.61098000     -4.66713100
H       -12.73164100     -1.14800400     -4.79931800
H        -9.22710600     -5.78867000      6.25456800
H        -7.86596400     -4.75899400      5.70588200
H        -9.44118300     -4.01283000      6.13350900
H         0.15824500     11.15759500      2.47317400
