125
COc1ccc(N(c2ccc(OC)cc2)c2ccc(-c3ccc4c(c3)Sc3cc(-c5ccc(N(c6ccc(OC)cc6)c6ccc(OC)cc6)cc5)ccc3N4CCCCCCS(=O)(=O)O)cc2)cc1
C         3.72526900      0.22951100     -0.93174300
C         3.64259100      1.62859000     -0.89107900
C         2.43240200      2.29559400     -1.08125400
C         1.23729100      1.60196400     -1.34893100
C         1.32731700      0.19332400     -1.42679400
C         2.53267700     -0.46715500     -1.19849600
N         0.01344000      2.27301000     -1.54461000
C        -1.22689600      1.65108200     -1.29830400
C        -1.37616900      0.24711600     -1.37040500
S        -0.05620000     -0.76980600     -1.97887700
C        -2.38194400      2.39090500     -0.98314100
C        -3.60799500      1.77208400     -0.73937400
C        -3.74781500      0.37743900     -0.77292500
C        -2.59591000     -0.36508700     -1.09028400
C         0.03887100      3.71954000     -1.71995000
C         0.07913200      4.55192800     -0.42967100
C         0.11147900      6.05215900     -0.71611000
C         0.13910800      6.90762200      0.55036400
C         0.17589200      8.40745900      0.25438700
C         0.20355200      9.24643100      1.52786000
C         4.99906400     -0.48642800     -0.70598400
C        -5.03789700     -0.28858500     -0.48866500
C         5.03046800     -1.75494500     -0.09644400
C         6.22591600     -2.43013800      0.12681000
C         7.45435200     -1.86632500     -0.26667600
C         7.43447100     -0.60130400     -0.88423700
C         6.23367300      0.06990700     -1.08994800
C        -6.26723600      0.32395900     -0.79617100
C        -7.48291400     -0.29442500     -0.52192200
C        -7.52308700     -1.57417500      0.06330900
C        -6.29952200     -2.19987800      0.36816500
C        -5.09072000     -1.56430100      0.10381600
N        -8.74882000     -2.20917900      0.33622200
N         8.66679100     -2.54582300     -0.04957900
C        -8.88181000     -3.06720100      1.45846700
C        -9.87303700     -2.00578700     -0.50455200
C         9.85435500     -1.82569600      0.24026700
C         8.72362000     -3.96181100     -0.11174300
C         9.42894800     -4.69096200      0.86312400
C         9.50197000     -6.07636300      0.79873700
C         8.85459800     -6.77882500     -0.23181000
C         8.14387200     -6.06090300     -1.20451900
C         8.09431200     -4.66543000     -1.14584900
C        11.06188800     -2.15206300     -0.40360400
C        12.23097300     -1.46140700     -0.11210900
C        12.22558200     -0.40890200      0.81895700
C        11.02500700     -0.07182900      1.46080400
C         9.85748400     -0.78639300      1.17823500
C       -11.14536400     -1.77408700      0.04957700
C       -12.25322300     -1.59038400     -0.76761200
C       -12.12084200     -1.61269200     -2.16631800
C       -10.85544700     -1.83645500     -2.72791200
C        -9.74950300     -2.04338200     -1.89876600
C        -9.51932800     -4.31471000      1.33151300
C        -9.66594800     -5.15186000      2.42991900
C        -9.16201200     -4.77603800      3.68673100
C        -8.51843800     -3.53720800      3.82130500
C        -8.39513300     -2.69080400      2.71601300
O         8.97058000     -8.13194800     -0.20315100
C         8.33995400     -8.88940300     -1.20782400
O        13.41369400      0.21508400      1.02890500
C        13.46991600      1.27407100      1.95398500
O       -13.25749100     -1.41018100     -2.88205200
C       -13.18604200     -1.42184100     -4.28753300
O        -9.34241900     -5.66507900      4.69762100
C        -8.86169300     -5.34212000      5.98038300
H         4.53299700      2.21818900     -0.66572300
H         2.43284200      3.38032700     -1.00512100
H         2.54691600     -1.55575200     -1.27940900
H        -2.33740400      3.47495100     -0.91146400
H        -4.46336700      2.39765600     -0.47828300
H        -2.65510600     -1.45232500     -1.16831200
H         0.91008200      3.96661500     -2.34533100
H        -0.84427500      4.00112600     -2.31341500
H        -0.79372600      4.31084000      0.19713800
H         0.95804900      4.26796600      0.17038600
H         0.99397000      6.29214400     -1.33689100
H        -0.76761700      6.33207800     -1.32506400
H        -0.74604900      6.67447100      1.16910900
H         1.01755000      6.63104600      1.16081300
H         1.06306200      8.65367200     -0.35108800
H        -0.70491300      8.69623800     -0.34289700
H        -0.68787800      9.09471400      2.15389600
H         1.10423200      9.06532200      2.13272200
H         4.09907900     -2.20936600      0.24840100
H         6.21657700     -3.40230800      0.62126000
H         8.37194700     -0.15186300     -1.21409600
H         6.25266300      1.03596000     -1.59910600
H        -6.27509800      1.30582500     -1.27407400
H        -8.41703800      0.21018100     -0.77142700
H        -6.30286800     -3.19014700      0.82516300
H        -4.16251800     -2.07047000      0.37722900
H         9.92583600     -4.15527100      1.67369700
H        10.04846600     -6.64822000      1.55091600
H         7.63612700     -6.57241900     -2.02171800
H         7.54953700     -4.11331800     -1.91353600
H        11.07375200     -2.96152600     -1.13545000
H        13.17178900     -1.71039000     -0.60638400
H        10.98618000      0.73429300      2.19307000
H         8.92949500     -0.52692700      1.69066000
H       -11.25682200     -1.74477300      1.13477600
H       -13.24331700     -1.41198200     -0.34410000
H       -10.71722800     -1.86711600     -3.80836500
H        -8.77059400     -2.22936700     -2.34398900
H        -9.90454200     -4.61937300      0.35694000
H       -10.16083700     -6.12053800      2.33937400
H        -8.12120500     -3.21147200      4.78230900
H        -7.90361400     -1.72309800      2.83043900
H         8.55566100     -9.94386800     -0.98970200
H         7.24460200     -8.74083900     -1.20861900
H         8.72875800     -8.64567600     -2.21342400
H        14.50862200      1.63039000      1.96282700
H        12.80715000      2.10968500      1.66350800
H        13.19561100      0.94544500      2.97309500
H       -14.20344600     -1.23534100     -4.65645300
H       -12.51543600     -0.63166400     -4.67197800
H       -12.83848400     -2.39715400     -4.67457800
H        -9.10913900     -6.19032300      6.63252700
H        -7.76613600     -5.19512400      5.98459100
H        -9.34042300     -4.43042500      6.38216500
O         1.46273800     11.29773900      0.41560000
O        -1.07528900     11.40693200      0.60614200
S         0.23033900     11.00106200      1.12736600
O         0.35817800     11.64204600      2.63871200
H        -0.45899700     12.14611600      2.79431100
