93
COc1ccc(N(c2ccc(OC)cc2)c2ccc3c(c2)c2cc(N(c4ccc(OC)cc4)c4ccc(OC)cc4)ccc2n3CCP(=O)(O)O)cc1
O        -2.90507700     -4.70439600      4.14526300
C        -2.19422100     -4.45162000      5.33254900
C        -3.14702900     -3.67124200      3.29503400
C        -3.85431400     -3.98188500      2.12151500
C        -4.13686700     -2.99684200      1.18398500
C        -3.74171800     -1.66260600      1.39834900
C        -3.04949300     -1.35693600      2.57717600
C        -2.74092300     -2.34744700      3.51382100
N        -4.02851800     -0.65840600      0.44192400
C        -5.29248900     -0.62377600     -0.19165300
C        -5.40323100     -0.33130400     -1.56504400
C        -6.64501700     -0.28845200     -2.18551300
C        -7.81780000     -0.55848400     -1.46069600
C        -7.71802300     -0.86277800     -0.09603900
C        -6.46716000     -0.88134600      0.52770900
O        -8.98453600     -0.50317300     -2.15768200
C       -10.19022300     -0.75627100     -1.47921700
C        -3.04186800      0.30314400      0.11200500
C        -3.40544500      1.66099000     -0.04895500
C        -2.46804700      2.63682600     -0.38200900
C        -1.13311800      2.24606100     -0.53078800
C        -0.74204200      0.89086300     -0.34293300
C        -1.70268600     -0.07935700     -0.04390800
C         0.69580900      0.84552900     -0.53687900
C         1.64500000     -0.17713500     -0.45381600
C         2.99475700      0.11650000     -0.68874300
C         3.38154600      1.44286800     -0.99216900
C         2.45386400      2.48090800     -1.05450200
C         1.10633600      2.17500100     -0.83616200
N        -0.01185900      3.00309900     -0.85589000
C         0.01616400      4.43855200     -0.96697400
C         0.21148200      5.13239700      0.38973300
P         0.29614200      6.92411800      0.21524500
O         1.34497100      7.49402800     -0.67389300
O        -1.23005900      7.25632800     -0.25300800
O         0.38570200      7.43945300      1.75614600
N         3.97163200     -0.90852300     -0.62691800
C         3.70255900     -2.17056200     -1.20963200
C         4.04879300     -3.36207700     -0.54428000
C         3.78331600     -4.59932200     -1.11698700
C         3.14250900     -4.68799600     -2.36420000
C         2.78447900     -3.50762100     -3.03032400
C         3.07539400     -2.26582900     -2.45857300
O         2.91256300     -5.94212300     -2.83683600
C         2.26360600     -6.08944600     -4.07623800
C         5.20180400     -0.67527700      0.02967300
C         6.40338700     -1.17840800     -0.48719600
C         7.62023800     -0.96222000      0.16585300
C         7.65943200     -0.20951000      1.34764500
C         6.46005100      0.30673400      1.86577600
C         5.25123000      0.06917900      1.22456400
O         8.79014800      0.06773500      2.05132300
C        10.02188000     -0.40742400      1.56644800
H        -2.10639100     -5.41174900      5.85853900
H        -1.18019500     -4.06040800      5.13051700
H        -2.72365900     -3.73356600      5.98553600
H        -4.15889200     -5.01758200      1.95960800
H        -4.67390800     -3.25442800      0.26969300
H        -2.73655400     -0.32776300      2.76031000
H        -2.19419900     -2.06850800      4.41424200
H        -4.49956300     -0.13296100     -2.14350600
H        -6.73510800     -0.06008400     -3.24922300
H        -8.60588900     -1.07423300      0.49944300
H        -6.40184500     -1.10767400      1.59317200
H       -10.99588300     -0.65853400     -2.21927500
H       -10.21808300     -1.77622300     -1.05337200
H       -10.36437700     -0.03097100     -0.66315000
H        -4.45001700      1.94298100      0.09069700
H        -2.77735100      3.67708900     -0.50072000
H        -1.41889600     -1.12531300      0.08151200
H         1.34685700     -1.19829200     -0.21139700
H         4.43687600      1.65121900     -1.17420900
H         2.78133200      3.49710600     -1.28203800
H         0.82647500      4.73097300     -1.65093100
H        -0.92319200      4.78001400     -1.42583800
H        -0.60789000      4.88312200      1.08170800
H         1.15417800      4.80663900      0.85631700
H        -1.25453500      8.05846500     -0.79685600
H         1.04036100      8.15058400      1.82991100
H         4.53388000     -3.30717700      0.43163400
H         4.04982500     -5.52590800     -0.60504700
H         2.28956300     -3.53782500     -4.00066900
H         2.80033800     -1.35199000     -2.98766100
H         2.17293700     -7.16862600     -4.25898500
H         1.25287100     -5.64172700     -4.06769700
H         2.84185300     -5.63455700     -4.90145700
H         6.38596200     -1.75567900     -1.41295400
H         8.53046100     -1.37597400     -0.26763000
H         6.50259600      0.88541600      2.79049100
H         4.32576100      0.46532300      1.64548000
H        10.79166400     -0.06803700      2.27256200
H        10.04716500     -1.51155500      1.51418200
H        10.25332300     -0.00365500      0.56362600
