59
CC1(C)c2ccccc2-c2cc3c4ccccc4n(-c4ccc(/C=C(\C#N)P(=O)(O)O)cc4)c3cc21
C         4.60018000     -0.71889500     -0.44956000
C         5.76562300     -0.50323400      0.22255400
C         3.29504600     -0.09058000     -0.31910400
C         2.26796900     -0.55022000     -1.17299800
C         0.98982400     -0.00904900     -1.13159000
C         0.69062000      1.01255900     -0.21506000
C         1.69993600      1.47678400      0.64726200
C         2.97986400      0.94094100      0.59356900
N        -0.60161000      1.56266600     -0.15960900
C        -0.91024600      2.93252600     -0.15760000
C        -2.32208100      3.08147100     -0.11215400
C        -2.88453300      4.36391600     -0.12315800
C        -2.04208200      5.47316600     -0.18735700
C        -0.64711000      5.30859700     -0.25296000
C        -0.06190800      4.04090400     -0.24327700
C        -1.79900800      0.83329800     -0.11363500
C        -1.99198000     -0.55417800     -0.04459400
C        -3.30291100     -1.00745300      0.02448600
C        -4.40302000     -0.10914600      0.03452600
C        -4.20586200      1.27021000     -0.01034500
C        -2.89031500      1.74663500     -0.08157000
H         2.49129700     -1.33981700     -1.89462400
H         0.22010100     -0.35615400     -1.82118500
H         1.46457900      2.25065000      1.37835500
H         3.73413300      1.31949300      1.28101600
H        -3.96903500      4.49020800     -0.08763500
H        -0.00361200      6.18911300     -0.31608200
H         1.02029100      3.92817600     -0.30928500
H        -1.15077800     -1.24791400     -0.03445600
H        -5.04867400      1.96456100      0.01578300
H         4.65215300     -1.49803300     -1.21410200
O         6.70243100     -2.60820400     -1.13711700
H         7.29437800     -2.73964200     -1.89403600
O         8.39519600     -0.64328300     -0.82543200
C         5.94620100      0.44639200      1.27095800
N         6.13954000      1.20283500      2.13219600
H        -2.46692400      6.47916900     -0.19453600
C        -3.78570900     -2.45489300      0.09936500
C        -3.27102500     -3.14815600      1.37562000
H        -2.17185300     -3.22070500      1.36413700
H        -3.57010700     -2.58765000      2.27357100
H        -3.67775600     -4.16870300      1.45439100
C        -3.35907400     -3.24870500     -1.15017300
H        -2.26136800     -3.32317300     -1.20807300
H        -3.76661200     -4.27145100     -1.11901300
H        -3.72141100     -2.76090400     -2.06718200
C        -5.63970700     -0.89742200      0.10846600
C        -6.97895200     -0.49804300      0.14299400
C        -5.30077400     -2.26685900      0.14578500
C        -7.97509500     -1.47728300      0.21470100
H        -7.24698700      0.56092300      0.11424900
C        -6.29527900     -3.23678100      0.21702600
C        -7.63845300     -2.83627100      0.25127000
H        -9.02608800     -1.17954800      0.24232200
H        -6.03915100     -4.29918500      0.24646000
H        -8.42825200     -3.58917700      0.30687900
P         7.27689900     -1.40202600     -0.20916100
O         7.64926100     -2.10335400      1.20306900
H         8.59674900     -2.01102100      1.38749000
