51
N#C/C(=C\c1ccc(-n2c3ccccc3c3c4oc5ccccc5c4ccc32)cc1)P(=O)(O)O
C         0.63008800      3.31810800      0.33368500
C         1.30849600      2.10135400      0.21031900
C         2.72768500      2.05112900      0.16173300
C         1.87171200     -1.50781200     -0.01300200
C         2.79887600      4.45006000      0.30814900
C         1.39419800      4.48583400      0.37705500
N         0.80712400      0.79032600      0.17149100
C         1.88509400     -0.10450200      0.09708300
C         3.08685400      0.65421900      0.08876300
C         6.43309300     -3.01446600     -0.28337000
C         3.08541800     -2.18695900     -0.10656500
C         4.29683500     -1.46921200     -0.09645500
C         4.27708500     -0.06335600     -0.00464300
C         5.70487600     -1.82239600     -0.17759600
C         6.40474200     -0.59587800     -0.13000300
O         5.53645600      0.46603100     -0.02625100
C         3.47480900      3.23521700      0.20685300
C         7.82674200     -2.94467600     -0.33772100
C         8.49525900     -1.70857100     -0.28816200
C         7.78930300     -0.50535800     -0.18275800
C        -0.55365500      0.43415000      0.21524300
C        -1.47887600      1.05869300     -0.63924300
C        -2.82485200      0.71937900     -0.59496700
C        -3.29253100     -0.26922000      0.29939600
C        -2.34831000     -0.89212200      1.14499500
C        -1.00348400     -0.54644800      1.11392300
C        -4.67771600     -0.69774000      0.41889000
C        -5.79696900     -0.29241000     -0.24342800
P        -7.42718700     -0.96198900      0.17377500
O        -8.41080600     -0.06014400      0.82567400
O        -7.91101500     -1.55025500     -1.25600100
O        -7.03940300     -2.27213000      1.05582600
C        -5.83296500      0.69982300     -1.26707300
N        -5.91126000      1.49801100     -2.10850500
H        -0.45687700      3.36160200      0.40280800
H         0.93127700     -2.05739200     -0.03770000
H         3.36306200      5.38444800      0.34250700
H         0.88516700      5.44793500      0.47002300
H         5.92136600     -3.97855000     -0.32261700
H         3.09233900     -3.27529800     -0.19342900
H         4.56468100      3.19251200      0.16827900
H         8.40965400     -3.86464600     -0.42031100
H         9.58638700     -1.68517600     -0.33273000
H         8.29255700      0.46169800     -0.14328100
H        -1.12868500      1.80218000     -1.35587300
H        -3.51204500      1.21892700     -1.27544200
H        -2.68891000     -1.65241900      1.85203600
H        -0.29586500     -1.01718600      1.79690200
H        -4.84634300     -1.47925500      1.16402900
H        -8.82943700     -1.29530700     -1.43407200
H        -7.64427900     -2.34165500      1.81077300
