51
N#C/C(=C\c1ccc(-n2c3ccccc3c3c4sc5ccccc5c4ccc32)cc1)P(=O)(O)O
C        -0.37896400      3.38847100     -0.31298300
C        -1.07905100      2.18380700     -0.19668700
C        -2.49972800      2.15372000     -0.14976400
C        -1.70574000     -1.41036500      0.00751100
C        -2.52577100      4.55790700     -0.28378500
C        -1.12117000      4.57031900     -0.35116500
N        -0.59917300      0.86570900     -0.16417400
C        -1.69288200     -0.00877000     -0.09594500
C        -2.88495700      0.76069600     -0.08471900
C        -5.96132200     -3.15694700      0.24628300
C        -2.93506100     -2.05500000      0.09256300
C        -4.14421300     -1.32815200      0.08216900
C        -4.10955400      0.08404000     -0.00014200
C        -5.50663300     -1.83087700      0.15873100
C        -6.46217900     -0.78471600      0.13651600
C        -3.22251600      3.35410600     -0.18956100
C        -7.32754400     -3.41920900      0.30910700
C        -8.25976900     -2.36791900      0.28600200
C        -7.83463400     -1.04262600      0.19955100
C         0.75481200      0.48516800     -0.21106500
C         1.69236200      1.08791800      0.64559500
C         3.03169200      0.72354100      0.59832100
C         3.47989400     -0.26951200     -0.30105500
C         2.52336300     -0.87032300     -1.14877700
C         1.18537700     -0.49930900     -1.11494800
C         4.85647900     -0.72427500     -0.42331800
C         5.98380600     -0.34340000      0.23978100
P         7.60014300     -1.04404700     -0.18053100
O         8.60173800     -0.16009400     -0.82954200
O         8.07202900     -1.64697200      1.24709100
O         7.18545700     -2.34271900     -1.06729800
C         6.03965400      0.64439500      1.26682100
N         6.13365300      1.43812700      2.11084900
H         0.70867700      3.41195700     -0.38074500
H        -0.77893200     -1.98259300      0.03297000
H        -3.07489800      5.50129600     -0.31355500
H        -0.59529100      5.52378900     -0.43862200
H        -5.24274600     -3.97958600      0.26407700
H        -2.96390300     -3.14354800      0.17389700
H        -4.31349100      3.34507400     -0.15259800
H        -7.67842200     -4.45133800      0.37682800
H        -9.32851300     -2.58825400      0.33604600
H        -8.55756800     -0.22445400      0.18145400
H         1.35695600      1.83407000      1.36651800
H         3.72874700      1.20679200      1.28053700
H         2.84877300     -1.63361400     -1.85974100
H         0.46859000     -0.95304900     -1.79988500
H         5.00936900     -1.50607000     -1.17155400
H         8.99639100     -1.41404400      1.42463400
H         7.78930900     -2.42266500     -1.82203600
S        -5.71030300      0.80701600      0.02192300
