36
O=C(O)c1ccc(N2c3ccccc3Oc3ccccc32)c(F)c1
O        -5.62367200      0.34175800     -1.11522800
C        -4.94436800      0.06522700     -0.15556600
O        -5.47324000     -0.26343900      1.04000000
C        -3.45279600      0.04730000     -0.15393900
C        -2.72371700     -0.27760100      0.99866800
C        -1.33633800     -0.27196500      0.93864300
F        -0.62837700     -0.57517000      2.02822900
C        -0.64925800      0.03734900     -0.24486000
N         0.76687400      0.03383600     -0.26164300
C         1.46851300     -1.18625400     -0.21845700
C         0.82908400     -2.42881500     -0.28873200
C         1.56770800     -3.61720100     -0.25361900
C         2.95649200     -3.57873400     -0.15153200
C         3.60763000     -2.34106200     -0.08874600
C         2.87455800     -1.16086000     -0.12496500
O         3.57314400      0.02044400     -0.08458300
C         1.47313900      1.24299500     -0.10696000
C         2.88018100      1.20370300     -0.02523400
C         3.61826600      2.37253300      0.11883600
C         2.97199000      3.61254800      0.18753500
C         1.58180900      3.66406700      0.11900400
C         0.83710500      2.48706700     -0.02343700
C        -1.39382000      0.35354100     -1.38756900
C        -2.78594600      0.36521400     -1.34594500
H        -6.43894100     -0.22257000      0.93797400
H        -3.22381500     -0.52525800      1.93434000
H        -0.25672900     -2.46722500     -0.37755600
H         1.04327000     -4.57333900     -0.30933400
H         3.53896300     -4.50155900     -0.12303000
H         4.69384900     -2.26616000     -0.01370100
H         4.70472500      2.28671100      0.17694700
H         3.55897500      4.52623500      0.29837500
H         1.05988800      4.62137800      0.17854300
H        -0.25055300      2.53548700     -0.07132300
H        -0.85488500      0.59141700     -2.30609200
H        -3.37871400      0.61013700     -2.22796200
