36
O=C(O)c1ccc(N2c3ccccc3Oc3ccccc32)cc1F
O         5.35865800     -0.55334500     -1.40969500
C         4.84617700     -0.17951300     -0.38727300
O         5.59238400      0.19250700      0.66293100
C         3.34418600     -0.11317300     -0.23962900
C         2.64816500      0.31081100      0.89891500
C         1.26274900      0.34253000      0.96962600
C         0.51947300     -0.05167300     -0.14869300
N        -0.89831500     -0.02092000     -0.09781600
C        -1.58373500      1.20969100     -0.12944800
C        -0.93001100      2.43961400     -0.27460700
C        -1.65399500      3.63751800     -0.30193700
C        -3.04257100      3.62259100     -0.19344200
C        -3.70869400      2.39813200     -0.06607200
C        -2.99099300      1.20813900     -0.03820700
O        -3.70652900      0.04213000      0.06826600
C        -1.63002200     -1.22058500      0.01072700
C        -3.03666700     -1.15567000      0.08602900
C        -3.79941700     -2.31243700      0.19533800
C        -3.17913500     -3.56640600      0.24111400
C        -1.78967600     -3.64407400      0.18416800
C        -1.02031700     -2.47968800      0.07385200
C         1.18164400     -0.47636700     -1.30963500
C         2.57141900     -0.50907100     -1.34431800
H         5.03692900      0.46416500      1.41046800
H         0.15504000      2.46146400     -0.37141400
H        -1.11761700      4.58199900     -0.41377000
H        -3.61341100      4.55280300     -0.21331000
H        -4.79584000      2.34055400      0.01058200
H        -4.88427800     -2.20555100      0.24758900
H        -3.78521100     -4.47024900      0.32638700
H        -1.28708200     -4.61241300      0.22841100
H         0.06624200     -2.55184300      0.03807300
H         0.59288500     -0.77851000     -2.17669300
H         3.11152700     -0.83449200     -2.23473200
H         0.77106500      0.67202800      1.88503200
F         3.33670900      0.70154800      2.00189200
