36
O=C(O)c1ccc(N2c3ccccc3Oc3ccccc32)cc1
O        -5.61885100      0.00011100      1.11486100
C        -4.97537600      0.00000600      0.09205200
O        -5.55333400     -0.00002600     -1.12682500
C        -3.48599100      0.00003100      0.02913000
C        -2.79123500     -0.00017200     -1.18963900
C        -1.39711500     -0.00015300     -1.19482000
C        -0.69137600      0.00005600      0.01416400
N         0.73346100      0.00002000      0.00554200
C         1.43899400      1.21488500      0.00155300
C         0.80019900      2.46077100      0.00892400
C         1.54520300      3.64660100      0.00440600
C         2.93709900      3.60310500     -0.00751800
C         3.58682000      2.36206600     -0.01485700
C         2.84942100      1.18467300     -0.01049200
O         3.54446000     -0.00007000     -0.01873600
C         1.43891400     -1.21489200      0.00154500
C         2.84933900     -1.18477400     -0.01047800
C         3.58667700     -2.36220800     -0.01476400
C         2.93689000     -3.60320600     -0.00737000
C         1.54498500     -3.64661700      0.00453400
C         0.80005000     -2.46075400      0.00899700
C        -1.38373600      0.00027700      1.23178700
C        -2.77627300      0.00026200      1.23897000
H        -6.51362500     -0.00000400     -0.97697000
H        -3.34846000     -0.00032000     -2.12660200
H        -0.28890600      2.50120700      0.01851700
H         1.02191800      4.60507100      0.01056400
H         3.52378000      4.52370400     -0.01098600
H         4.67539600      2.28369300     -0.02412000
H         4.67525800     -2.28389100     -0.02399900
H         3.52351100     -4.52384300     -0.01076600
H         1.02165600     -4.60506400      0.01075400
H        -0.28905600     -2.50112400      0.01860700
H        -0.81647400      0.00046400      2.16415500
H        -3.33849500      0.00041100      2.17411700
H        -0.83986600     -0.00030500     -2.13320700
